Al12 Ni4
1.0
   4.7705713599999999    0.0000109000000000    0.0000000000000000
   0.0000158300000000    6.5589051800000000    0.0000000000000000
   0.0000000000000000    0.0000000000000000    7.3043382699999997
Al Ni
12 4
direct
   0.9157127600000000    0.0103850100000000    0.2500000000000000 Al
   0.3638040200000000    0.1713216400000000    0.4438987300000000 Al
   0.3638040200000000    0.1713216400000000    0.0561012700000000 Al
   0.8637959500000000    0.3286767700000000    0.5561041500000000 Al
   0.1362040500000000    0.6713232300000000    0.4438958500000000 Al
   0.6361959800000000    0.8286783600000001    0.9438987300000000 Al
   0.1362040500000000    0.6713232300000000    0.0561041500000000 Al
   0.6361959800000000    0.8286783600000001    0.5561012700000000 Al
   0.8637959500000000    0.3286767700000000    0.9438958500000000 Al
   0.5842844200000000    0.5103862500000000    0.2500000000000000 Al
   0.0842872400000000    0.9896149900000000    0.7500000000000000 Al
   0.4157155800000000    0.4896137500000000    0.7500000000000000 Al
   0.4442843200000000    0.8710797200000000    0.2500000000000000 Ni
   0.0557162400000000    0.3710779600000000    0.2500000000000000 Ni
   0.5557156800000000    0.1289202800000000    0.7500000000000000 Ni
   0.9442837600000000    0.6289220400000000    0.7500000000000000 Ni
