Ni1 Cu1 
1.0
4.4010707784249012e+00 0.0000000000000000e+00 0.0000000000000000e+00 
3.6855043267744243e+00 2.4055551116901266e+00 0.0000000000000000e+00 
3.6855322209197903e+00 1.0963625762387064e+00 2.1412305284667541e+00 
Ni Cu 
1 1 
Cartesian
   5.8863248137    1.7510120112    1.0706345353
   3.6862180407    1.0965766897    2.1412112574
