Cu6 Zr2 
1.0
5.6545811655067482e+00 0.0000000000000000e+00 0.0000000000000000e+00 
-2.8272882597895896e+00 4.8970084438768682e+00 0.0000000000000000e+00 
2.8401545780094470e-08 -1.5685014974169124e-08 4.2995239017060527e+00 
Cu Zr 
6 2 
Cartesian
   0.0000035380    1.4833283388    1.0748809754
  -1.5426836826    4.1553418201    1.0748809754
   1.2845996404    0.7416666081    3.2246429263
   1.5426932937    4.1553418201    1.0748809754
   2.8272893961    3.4136800894    3.2246429263
   4.3699766167    0.7416666081    3.2246429263
  -0.0000012573    3.2646739165    3.2246429263
   2.8272941915    1.6323345117    1.0748809754
