Al2 Zr4 
1.0
5.3254046940043160e+00 0.0000000000000000e+00 0.0000000000000000e+00 
2.6626370496237435e+00 4.8432512290314778e+00 0.0000000000000000e+00 
2.6626376353852974e+00 -5.5806282486482036e-07 4.8432512026592214e+00 
Al Zr 
2 4 
Cartesian
   3.9939874954    4.8432366993    0.0000132061
   6.6566903993    0.0000125955    4.8432366729
   5.3253384361    0.9346019106    2.4216256013
   2.6626359093    2.4216255068    0.9346021846
   7.9880434697    2.4216251641    3.9086490181
   5.3253409429    3.9086487603    2.4216256013
