Zr1 
1.0
3.0960514394054481e+00 0.0000000000000000e+00 0.0000000000000000e+00 
-1.0320176129246854e+00 2.9189840593166774e+00 0.0000000000000000e+00 
-1.0320157684580218e+00 -1.4594912288903861e+00 2.5279160943216374e+00 
Zr 
1 
Cartesian
  -2.0640227808    1.4594928304    2.5279160943
