Ni4 Cu20 Zr4 Ta4 
1.0
7.9683633525961639e+00 0.0000000000000000e+00 0.0000000000000000e+00 
0.0000000000000000e+00 7.9381658541632394e+00 0.0000000000000000e+00 
0.0000000000000000e+00 0.0000000000000000e+00 7.1812733695566191e+00 
Ni Cu Zr Ta 
4 20 4 4 
Cartesian
   7.9175251944    4.0222845146    3.6117639910
   2.0429289963    5.9004228031    3.6117639910
   7.9175251944    5.9004228031    5.3648277209
   2.0429289963    4.0222845146    5.3648277209
   0.1220378753    4.1085723775    0.0209280977
   1.8700553534    5.8141349402    0.0209280259
   0.1220378753    5.8141349402    1.7743921118
   1.8700553534    4.1085723775    1.7743921118
   7.8630056523    7.8382322842    0.1958993925
   2.0974485384    2.0844750335    0.1958993925
   7.8630056523    2.0844750335    1.5994203861
   2.0974485384    7.8382322842    1.5994203861
   3.8649271504    3.8485577549    0.2615865000
   6.0955270404    6.0741495628    0.2615865000
   3.8649271504    6.0741495628    1.5337332786
   6.0955270404    3.8485577549    1.5337332786
   4.0039671225    7.8504094306    3.5535238640
   5.9564870682    2.0722978871    3.5535238640
   4.0039671225    2.0722978871    5.4230678479
   5.9564870682    7.8504094306    5.4230678479
   4.1174286483    0.1134562355    0.0055679931
   5.8430255425    1.8710891972    0.0055680290
   4.1174286483    1.8710891972    1.7897528555
   5.8430255425    0.1134562355    1.7897528555
   7.9249118672    7.8363271244    3.4179629666
   2.0355423235    2.0863801933    3.4179629666
   7.9249118672    2.0863801933    5.5586287453
   2.0355423235    7.8363271244    5.5586287453
   4.0328922815    4.0758671342    3.3533530501
   5.9275619093    5.8468401836    3.3533530501
   4.0328922815    5.8468401836    5.6232386618
   5.9275619093    4.0758671342    5.6232386618
