Zr1 Al5 Ni2
1.0
   3.8578224800000003   -0.0000000000000000   -1.0353622700000000
  -0.2778704999999990    3.8478032199999999   -1.0353622700000000
   0.0162255100000000    0.0174404500000000    7.7653766300000004
Zr Al Ni
1 5 2
direct
  -0.0000000000000000   -0.0000000000000000    0.0000000000000000 Zr
   0.5000000000000000    0.5000000000000000    0.0000000000000000 Al
   0.6482329900000000    0.1482329900000000    0.2964659900000000 Al
   0.1482329900000000    0.6482329900000000    0.2964659900000000 Al
   0.3517670100000000    0.8517670100000000    0.7035340100000000 Al
   0.8517670100000000    0.3517670100000000    0.7035340100000000 Al
   0.2397085600000000    0.2397085600000000    0.4794171200000000 Ni
   0.7602914400000000    0.7602914400000000    0.5205828800000000 Ni
