Al12 Zr3 Nb1 
1.0
4.0370500502362123e+00 0.0000000000000000e+00 0.0000000000000000e+00 
2.8957690420815052e-15 4.0370500502369744e+00 0.0000000000000000e+00 
-2.2559748606755826e-17 -5.4187412541221908e-16 1.7070448466909589e+01 
Al Zr Nb 
12 3 1 
Cartesian
   2.0185250251    0.0000000000    0.0118483934
   4.0370500502    2.0185250251    0.0118483934
   2.0185250251    2.0185250251    2.0558282498
   4.0370500502    2.0185250251    4.3208548455
   2.0185250251    0.0000000000    4.3208548455
   4.0370500502    2.0185250251    8.4642623792
   2.0185250251    0.0000000000    8.4642623792
   4.0370500502    0.0000000000   10.5769352223
   4.0370500502    0.0000000000    6.4474571746
   2.0185250251    2.0185250251   15.0270133627
   2.0185250251    0.0000000000   12.7990637811
   4.0370500502    2.0185250251   12.7990637811
   4.0370500502   -0.0000000000    2.1134239429
   2.0185250251    2.0185250251   10.5800591144
   4.0370500502    0.0000000000   14.9987617705
   2.0185250251    2.0185250251    6.5016387780
