Cu-Zr from LAMMPS dump
1.0
15.0575187039845311 0.0000000000000000 0.0000000000000000
-0.2476102410644045 19.8715927688170204 0.0000000000000000
1.2601788669017870 -4.6282567655128295 16.8609738086598497
Cu Zr
103 153
Direct
0.1452850000000000 0.0969009000000000 0.2067240000000000
0.2790110000000000 0.0479046000000000 0.2918620000000000
0.2494110000000000 0.0149098000000000 0.4242180000000000
0.1955990000000000 0.1442600000000000 0.0015222200000000
0.0000962731000000 0.2143560000000000 0.3821250000000000
0.4967570000000000 0.2517620000000000 0.4920240000000000
0.1677230000000000 0.4977240000000000 0.4791200000000000
0.4540290000000000 0.4579670000000000 0.2767580000000000
0.4046940000000000 0.3964090000000000 0.3763700000000000
0.4351870000000000 0.4169190000000000 0.1217580000000000
0.0467383000000000 0.1935610000000000 0.8035070000000000
0.3484810000000000 0.0908868000000000 0.8056930000000000
0.4371340000000000 0.1103070000000000 0.6819480000000000
0.1843870000000000 0.1025770000000000 0.8441220000000000
0.1162440000000000 0.2080560000000000 0.6819040000000000
0.4774870000000000 0.0994216000000000 0.5290880000000000
0.4907930000000000 0.0921555000000000 0.8017330000000000
0.2212740000000000 0.4192940000000000 0.5523860000000000
0.4848520000000000 0.4535240000000000 0.5918210000000000
0.4744630000000000 0.3684370000000000 0.6555930000000000
0.0151671000000000 0.3052790000000000 0.7847400000000000
0.2532870000000000 0.2180350000000000 0.5938790000000000
0.1011780000000000 0.7183710000000000 0.2796650000000000
0.2073740000000000 0.6263970000000000 0.3092400000000000
0.4463140000000000 0.7532860000000000 0.4064420000000000
0.4651860000000000 0.5609750000000000 0.4316730000000000
0.3391220000000000 0.6641150000000000 0.3800490000000000
0.2156060000000000 0.5102870000000000 0.1695970000000000
0.0202722000000000 0.6158470000000000 0.0817625000000000
0.2006080000000000 0.6112360000000000 0.4706900000000000
0.2231380000000000 0.8568960000000000 0.0434957000000000
0.1194960000000000 0.7394660000000000 0.0714082000000000
0.1925540000000000 0.9750799999999999 0.0556125000000000
0.1035750000000000 0.8355190000000000 0.2527160000000000
0.0775009000000000 0.8587040000000000 0.1099020000000000
0.4013930000000000 0.7899380000000000 0.0392083000000000
0.1445710000000000 0.8330130000000000 0.3847130000000000
0.0434065000000000 0.8582379999999999 0.4995440000000000
0.1366300000000000 0.7145210000000000 0.6092450000000000
0.0952595000000000 0.6792620000000000 0.7263720000000000
0.2409330000000000 0.7544120000000000 0.7836030000000000
0.2649170000000000 0.9875990000000000 0.7193290000000000
0.3082890000000000 0.7994850000000000 0.9122590000000000
0.2721100000000000 0.7715450000000000 0.6439920000000000
0.3293180000000000 0.8614430000000000 0.5867710000000000
0.1940220000000000 0.8649289999999999 0.8931850000000000
0.1200870000000000 0.9657690000000000 0.7903510000000000
0.4189660000000000 0.9985800000000000 0.8519770000000000
0.0069724900000000 0.7989210000000000 0.5981520000000000
0.4891820000000000 0.9843320000000000 0.5356170000000000
0.1523900000000000 0.9651770000000000 0.5137930000000001
0.6459520000000000 0.0330916000000000 0.1945560000000000
0.7100379999999999 0.0695566000000000 0.0147150000000000
0.5937390000000000 0.4062130000000000 0.0599850000000000
0.8811740000000000 0.4834240000000000 0.1235170000000000
0.7500920000000000 0.2756100000000000 0.2114640000000000
0.7121540000000000 0.4257330000000000 0.4843580000000000
0.5077880000000000 0.3691400000000000 0.4746800000000000
0.9363899999999999 0.0947446000000000 0.8273860000000000
0.7917350000000000 0.1687580000000000 0.7589760000000000
0.6445380000000001 0.1791270000000000 0.7096090000000000
0.5740050000000000 0.1955170000000000 0.8978860000000000
0.5987470000000000 0.0598681000000000 0.6279169999999999
0.8504350000000001 0.0394483000000000 0.7192700000000000
0.5996170000000000 0.1733250000000000 0.5684180000000000
0.9237800000000000 0.0588846000000000 0.9914050000000000
0.6034640000000000 0.4690420000000000 0.6918860000000000
0.5598580000000000 0.4994540000000000 0.5029870000000000
0.5518450000000000 0.3231280000000000 0.9347700000000000
0.8466870000000000 0.4017780000000000 0.6101020000000000
0.6554300000000000 0.4103630000000000 0.9170050000000000
0.8138069999999999 0.3906900000000000 0.8867610000000000
0.5855170000000000 0.2807070000000000 0.6975550000000000
0.9681830000000000 0.3863110000000000 0.9021749999999999
0.8387370000000000 0.2976940000000000 0.7503310000000000
0.7043469999999999 0.6656820000000000 0.2360660000000000
0.8541530000000001 0.6871340000000000 0.3079800000000000
0.7619000000000000 0.6647020000000000 0.4219060000000000
0.5797050000000000 0.5957510000000000 0.3455530000000000
0.8989900000000000 0.6003740000000000 0.3927020000000000
0.7336230000000000 0.5475360000000000 0.4362270000000000
0.8831480000000000 0.9029460000000000 0.4546430000000000
0.5369640000000000 0.8828520000000000 0.3894230000000000
0.8626250000000000 0.9492000000000000 0.0075571500000000
0.5422979999999999 0.9366480000000000 0.1858120000000000
0.8991880000000000 0.8540610000000000 0.0928063000000000
0.6202970000000000 0.7950580000000000 0.2615720000000000
0.9706880000000000 0.8020699999999999 0.3595700000000000
0.5189450000000000 0.8916350000000000 0.0402283000000000
0.8027250000000000 0.9756020000000000 0.2311770000000000
0.7551949999999999 0.6897450000000001 0.8467320000000000
0.8470190000000000 0.6540880000000000 0.7168930000000000
0.7139050000000000 0.7043030000000000 0.6696170000000000
0.6384510000000000 0.7396930000000000 0.9668250000000000
0.9768230000000000 0.7206350000000000 0.6875750000000000
0.7858550000000000 0.5074730000000000 0.8765980000000000
0.7518080000000000 0.5656580000000000 0.7760359999999999
0.6455080000000000 0.9525320000000000 0.6102360000000000
0.7710540000000000 0.8993100000000001 0.7096970000000000
0.9632210000000000 0.9732290000000000 0.8546940000000000
0.8801690000000000 0.8719310000000000 0.8254440000000000
0.8179080000000000 0.9329860000000000 0.5942990000000000
0.8539030000000000 0.7901170000000000 0.6830790000000000
0.2812270000000000 0.2058190000000000 0.3070750000000000
0.3480360000000000 0.1482410000000000 0.4415940000000000
0.1314220000000000 0.0978317000000000 0.3721820000000000
0.3135760000000000 0.0734669000000000 0.0983713000000000
0.0208369000000000 0.1501970000000000 0.1092590000000000
0.4644330000000000 0.1867060000000000 0.1477530000000000
0.4650900000000000 0.0824654000000000 0.2521550000000000
0.1150760000000000 0.2527380000000000 0.2631170000000000
0.4559240000000000 0.2490430000000000 0.3411910000000000
0.1376770000000000 0.2544730000000000 0.4713520000000000
0.2687600000000000 0.2248540000000000 0.1273620000000000
0.2585800000000000 0.3777220000000000 0.0829093000000000
0.0899426000000000 0.3037010000000000 0.0923946000000000
0.4353970000000000 0.2766050000000000 0.0317392000000000
0.2200530000000000 0.3628530000000000 0.3756590000000000
0.0707348000000000 0.4900970000000000 0.0881152000000000
0.3607260000000000 0.3287240000000000 0.2177150000000000
0.1618610000000000 0.4142890000000000 0.2510280000000000
0.2527180000000000 0.2378580000000000 0.9332640000000000
0.1102740000000000 0.0603258000000000 0.6962220000000000
0.0769019000000000 0.0163612000000000 0.9576500000000000
0.4037750000000000 0.1218260000000000 0.9717870000000000
0.2628340000000000 0.1787040000000000 0.7395360000000000
0.4339610000000000 0.2334720000000000 0.8017250000000000
0.1343510000000000 0.1147670000000000 0.5433220000000000
0.0369561000000000 0.1878630000000000 0.9623130000000000
0.3083270000000000 0.0388852000000000 0.5789020000000000
0.3339390000000000 0.3199150000000000 0.5227630000000000
0.1154930000000000 0.4538050000000000 0.8343900000000000
0.0193808000000000 0.4063460000000000 0.5427020000000000
0.3661210000000000 0.3768250000000000 0.9479160000000000
0.1516570000000000 0.3281130000000000 0.6476210000000000
0.3210440000000000 0.4683930000000000 0.6863200000000000
0.3021400000000000 0.3337390000000000 0.7515360000000000
0.1341810000000000 0.3569100000000000 0.9298610000000000
0.4197000000000000 0.2233210000000000 0.6265810000000001
0.0415294000000000 0.7033180000000000 0.4385380000000000
0.1861130000000000 0.6452140000000000 0.1443850000000000
0.3616160000000000 0.5756160000000000 0.2043630000000000
0.2908510000000000 0.7403530000000000 0.2967880000000000
0.3926130000000000 0.6769520000000000 0.1201770000000000
0.2063160000000000 0.7541190000000000 0.4715000000000000
0.0783882000000000 0.5190090000000001 0.3702330000000000
0.2799360000000000 0.5474869999999999 0.0409533000000000
0.0023312000000000 0.5960460000000000 0.2408450000000000
0.2999100000000000 0.5173920000000000 0.3449850000000000
0.4751490000000000 0.5049410000000000 0.0110623000000000
0.3634840000000000 0.5011760000000000 0.4947140000000000
0.3426250000000000 0.8713230000000000 0.4453060000000000
0.2677050000000000 0.8966700000000000 0.3154680000000000
0.0553982000000000 0.9569370000000000 0.3825370000000000
0.2618680000000000 0.8052130000000000 0.1567590000000000
0.3626240000000000 0.9339640000000000 0.1699990000000000
0.4269910000000000 0.8347250000000001 0.2638740000000000
0.1581390000000000 0.9571910000000000 0.2268760000000000
0.4498990000000000 0.9878760000000000 0.3746520000000000
0.2291440000000000 0.6063150000000000 0.7935230000000000
0.3919190000000000 0.6933550000000001 0.7765339999999999
0.1077070000000000 0.7415360000000000 0.9116150000000000
0.2679900000000000 0.6170480000000000 0.6114720000000000
0.1121840000000000 0.5098110000000000 0.6943020000000000
0.1284120000000000 0.6103130000000000 0.9622050000000000
0.4714620000000000 0.6495730000000000 0.9391950000000000
0.0495447000000000 0.6004880000000000 0.5800610000000000
0.2876420000000000 0.6910980000000000 0.9667700000000000
0.4787190000000000 0.5327900000000000 0.7856990000000000
0.4071640000000000 0.6948500000000000 0.5188140000000000
0.4832480000000000 0.5922230000000001 0.6376180000000000
0.3038520000000000 0.5010680000000000 0.8660780000000000
0.1100370000000000 0.8340770000000000 0.7663470000000000
0.3811980000000000 0.9183120000000000 0.9827050000000001
0.4509930000000000 0.9742890000000000 0.6918050000000000
0.3505780000000000 0.8573539999999999 0.7802720000000000
0.1564700000000000 0.8949800000000000 0.6234020000000000
0.0290344000000000 0.8785240000000000 0.9692550000000000
0.2443160000000000 0.9976470000000000 0.9114270000000000
0.8697370000000000 0.2227250000000000 0.2967520000000000
0.8196750000000000 0.0874026000000000 0.1420050000000000
0.6313210000000000 0.1781730000000000 0.2311490000000000
0.7739940000000000 0.1719330000000000 0.4547990000000000
0.7380620000000000 0.0998739000000000 0.3275150000000000
0.5710640000000000 0.1447110000000000 0.3817540000000000
0.5216780000000000 0.0334219000000000 0.0860179000000000
0.6054110000000000 0.1872780000000000 0.0551468000000000
0.6412890000000000 0.0303427000000000 0.4469960000000000
0.9567570000000000 0.0720960000000000 0.2752710000000000
0.8226170000000000 0.1982540000000000 0.0596849000000000
0.9542640000000000 0.1212420000000000 0.4830640000000000
0.6657140000000000 0.2762070000000000 0.3793500000000000
0.8577830000000000 0.0105882000000000 0.4067730000000000
0.8395370000000000 0.3125870000000000 0.4668540000000000
0.9380800000000000 0.3523450000000000 0.0262961000000000
0.7256629999999999 0.4921170000000000 0.0343202000000000
0.9340960000000000 0.2978220000000000 0.1870010000000000
0.5745600000000000 0.3257000000000000 0.2128720000000000
0.8657760000000000 0.4949660000000000 0.4885900000000000
0.7571790000000000 0.3991190000000000 0.1612540000000000
0.5978000000000000 0.4433680000000000 0.3642710000000000
0.9410770000000001 0.4576250000000000 0.2489290000000000
0.7966230000000000 0.4069750000000000 0.3375320000000000
0.9814150000000000 0.3588410000000000 0.3525710000000000
0.7942560000000000 0.0884562000000000 0.5860850000000000
0.7569840000000000 0.1545610000000000 0.8933780000000000
0.8911650000000000 0.2528900000000000 0.8781770000000000
0.5812760000000000 0.0549061000000000 0.9024870000000000
0.6881450000000000 0.0314370000000000 0.7392670000000000
0.7153010000000000 0.3002240000000000 0.9983600000000000
0.9522070000000000 0.1564740000000000 0.6730840000000000
0.9859980000000000 0.0035937900000000 0.5612780000000001
0.5202350000000000 0.4029710000000000 0.8067210000000000
0.7555200000000000 0.2495320000000000 0.6249460000000000
0.6860860000000000 0.2848450000000000 0.8247700000000000
0.7141390000000000 0.4069410000000000 0.7503320000000000
0.9535300000000000 0.2701300000000000 0.5901290000000000
0.9322770000000000 0.4222280000000000 0.7478620000000000
0.6306230000000000 0.3418750000000000 0.5772880000000000
0.6102959999999999 0.6266740000000000 0.0996962000000000
0.8428260000000000 0.6226810000000000 0.1370880000000000
0.5914930000000000 0.5178340000000000 0.1943110000000000
0.7521730000000000 0.5391840000000000 0.2856420000000000
0.6234530000000000 0.7444220000000000 0.4126860000000000
0.5080930000000000 0.6778410000000000 0.2650690000000000
0.8628490000000000 0.7761720000000000 0.4646830000000000
0.9442930000000000 0.7123750000000000 0.0244117000000000
0.5624090000000000 0.8026680000000000 0.1123700000000000
0.9697610000000000 0.7470740000000000 0.2050510000000000
0.7904750000000000 0.8078080000000000 0.3073170000000000
0.7520140000000000 0.7534690000000001 0.1333340000000000
0.9911710000000000 0.9888970000000000 0.1208800000000000
0.7034210000000000 0.8874740000000000 0.4634070000000000
0.9470440000000000 0.9023240000000000 0.2456290000000000
0.6977310000000000 0.9044810000000000 0.1127510000000000
0.6691540000000000 0.9273730000000000 0.2952780000000000
0.5920120000000000 0.6510480000000000 0.7797390000000000
0.7325910000000000 0.5500950000000000 0.6246670000000000
0.9124920000000000 0.5221640000000000 0.6721080000000000
0.8498460000000000 0.6535990000000000 0.5467670000000000
0.9293660000000000 0.7534330000000000 0.8359720000000000
0.9339600000000000 0.5205470000000000 0.9625130000000000
0.6303280000000000 0.5664310000000000 0.9050450000000000
0.9477980000000000 0.5951470000000000 0.8423770000000000
0.7715850000000000 0.6380040000000000 0.9864110000000000
0.7998650000000000 0.7940700000000001 0.9749260000000000
0.6284470000000000 0.6615460000000000 0.5274170000000000
0.7046160000000000 0.8013209999999999 0.5845270000000000
0.5094810000000000 0.8419050000000000 0.5660900000000000
0.5232180000000000 0.8095100000000000 0.8809340000000000
0.5098680000000000 0.7576140000000000 0.6784880000000000
0.7112290000000000 0.8052230000000000 0.8116110000000000
0.5645019999999999 0.9065010000000000 0.7794270000000000
0.9581290000000000 0.9159460000000000 0.6981120000000000
0.7770270000000000 0.9916020000000000 0.8707380000000000
0.6653770000000000 0.9143850000000000 0.9519750000000000
