Ni12 Ta4 
1.0
4.4960476775293650e+00 0.0000000000000000e+00 0.0000000000000000e+00 
-1.3381132309752811e-10 5.1352965115007363e+00 0.0000000000000000e+00 
-1.5625907649161734e+00 3.6794698490803552e-11 8.4522564834605802e+00 
Ni Ta 
12 4 
Cartesian
  -0.0462062683    5.1341718816    7.3934845751
   3.0051237253    5.1318301864    5.2874611838
   2.1985603244    3.8514723837    7.4016917161
  -0.0716668129    2.5641819306    3.1647952996
   2.2001325192    3.8514723836    3.1661307561
  -0.0462062683    2.5687728857    7.3934845751
   0.7333243933    1.2838241279    5.2861257273
   2.9796631808    0.0011229404    1.0587719084
   2.9796631807    2.5665236258    1.0587719084
  -0.0716668128    0.0034678298    3.1647952996
   0.7348965881    1.2838241279    1.0505647674
   3.0051237254    2.5711145809    5.2874611838
   0.7253502446    3.8514723836    5.2827110157
   2.2081066679    1.2838241279    3.1695454678
   0.7584818843    3.8514723836    1.0413771646
   2.1749750282    1.2838241279    7.4108793189
