Ta20 Al10
1.0
   9.9223949999999999    0.0000000000000000    0.0000000000000000
   0.0000000000000000    9.9223949999999999    0.0000000000000000
   0.0000000000000000    0.0000000000000000    5.4138320000000002
Ta Al
20 10
direct
   0.3114070000000000    0.3114070000000000    0.2483620000000000 Ta
   0.9377860000000000    0.7370000000000000    0.5000000000000000 Ta
   0.2630000000000000    0.0622140000000000    0.5000000000000000 Ta
   0.4377859999999990    0.7630000000000000    0.0000000000000000 Ta
   0.8114070000000000    0.1885929999999990    0.7483620000000000 Ta
   0.4031860000000000    0.5968140000000000    0.5000000000000000 Ta
   0.5622140000000000    0.2370000000000000    0.0000000000000000 Ta
   0.8114070000000000    0.1885929999999990    0.2516380000000000 Ta
   0.1885929999999990    0.8114070000000000    0.7483620000000000 Ta
   0.3114070000000000    0.3114070000000000    0.7516379999999990 Ta
   0.9031859999999990    0.9031859999999990    0.0000000000000000 Ta
   0.0622140000000000    0.2630000000000000    0.5000000000000000 Ta
   0.2370000000000000    0.5622140000000000    0.0000000000000000 Ta
   0.6885930000000000    0.6885930000000000    0.7516379999999990 Ta
   0.0968140000000000    0.0968140000000000    0.0000000000000000 Ta
   0.5968140000000000    0.4031860000000000    0.5000000000000000 Ta
   0.7630000000000000    0.4377859999999990    0.0000000000000000 Ta
   0.1885929999999990    0.8114070000000000    0.2516380000000000 Ta
   0.6885930000000000    0.6885930000000000    0.2483620000000000 Ta
   0.7370000000000000    0.9377860000000000    0.5000000000000000 Ta
   0.3639050000000000    0.0347009999999990    0.0000000000000000 Al
   0.9652989999999991    0.6360950000000000    0.0000000000000000 Al
   0.1360950000000000    0.5347010000000000    0.5000000000000000 Al
   0.5347010000000000    0.1360950000000000    0.5000000000000000 Al
   0.4652989999999990    0.8639049999999990    0.5000000000000000 Al
   0.0347009999999990    0.3639050000000000    0.0000000000000000 Al
   0.6360950000000000    0.9652989999999991    0.0000000000000000 Al
   0.8639049999999990    0.4652989999999990    0.5000000000000000 Al
   0.5000000000000000    0.5000000000000000    0.0000000000000000 Al
   0.0000000000000000    0.0000000000000000    0.5000000000000000 Al
