Zr1
1.0
   2.9244419800000001    0.0000000000000000   -1.0339450500000000
  -1.4622204800000000    2.5326409600000002   -1.0339450500000000
   0.0000000100000000    0.0000000200000000    3.1018372099999998
Zr
1
direct
  -0.0000000000000000    0.0000000000000000    0.0000000000000000 Zr
