Nb4 Al4 Ni4                             
   1.00000000000000     
    -2.4101726430830497   -4.3042790006191955    0.0000000000000000
    -4.9327857793257985    0.0649042723364296    0.0000000000000000
     0.0000000000000000    0.0000000000000000   -8.0094976718918467
   Nb   Al   Ni
     4     4     4
Direct
  0.3339995862738976  0.3339950209833022  0.5500523637949983
  0.6622603257821730  0.6622572009400038  0.4285807085810684
  0.6622603257821730  0.6622572009400038  0.0714192914189316
  0.3339995862738976  0.3339950209833022  0.9499476362050017
  0.9918675393836426  0.9918748486768323  0.4882673855933017
  0.9918675393836426  0.9918748486768323  0.0117326144066983
  0.8371863894955922  0.3524573906404450  0.7500000000000000
  0.3524573577321274  0.8371887580412575  0.7500000000000000
  0.8401812496190147  0.8401850102459953  0.7500000000000000
  0.1722157535556194  0.6525687877097680  0.2500000000000000
  0.6525839599335634  0.1722152970624005  0.2500000000000000
  0.1691203867846497  0.1691326150998589  0.2500000000000000
 
  0.00000000E+00  0.00000000E+00  0.00000000E+00
  0.00000000E+00  0.00000000E+00  0.00000000E+00
  0.00000000E+00  0.00000000E+00  0.00000000E+00
  0.00000000E+00  0.00000000E+00  0.00000000E+00
  0.00000000E+00  0.00000000E+00  0.00000000E+00
  0.00000000E+00  0.00000000E+00  0.00000000E+00
  0.00000000E+00  0.00000000E+00  0.00000000E+00
  0.00000000E+00  0.00000000E+00  0.00000000E+00
  0.00000000E+00  0.00000000E+00  0.00000000E+00
  0.00000000E+00  0.00000000E+00  0.00000000E+00
  0.00000000E+00  0.00000000E+00  0.00000000E+00
  0.00000000E+00  0.00000000E+00  0.00000000E+00
