Al3 Ni3 Zr3 
1.0
6.4791676869210448e+00 0.0000000000000000e+00 0.0000000000000000e+00 
-3.2394557525400378e+00 5.6109028339001625e+00 0.0000000000000000e+00 
0.0000000000000000e+00 0.0000000000000000e+00 3.8537121384326878e+00 
Al Ni Zr 
3 3 3 
Cartesian
   5.6969978560    1.3547581001    3.8537121384
  -1.6746849228    5.6109028339    3.8537121384
   2.4574802481    4.2561447338    3.8537121384
  -3.2394241351    5.6108972230    1.9268560692
   0.0001015914    3.7405813160    3.8537121384
   3.2396362599    1.8703327397    3.8537121384
   1.3513000461    2.3403244047    1.9268560692
  -1.8882650029    3.2705784292    1.9268560692
   0.5376009672    5.6109028339    1.9268560692
