Zr2 W4
1.0
   4.6776272399999996   -0.0000000000000000    2.7006291999999998
   1.5592094200000000    4.4101096899999996    2.7006291999999998
  -0.0000000100000000   -0.0000000100000000    5.4012604299999998
Zr W
2 4
direct
   0.8750000000000000    0.8750000000000000    0.8750000000000000 Zr
   0.1250000000000000    0.1250000000000000    0.1250000000000000 Zr
   0.5000000000000000    0.5000000000000000    0.5000000000000000 W
   0.5000000000000000    0.5000000000000000    0.0000000000000000 W
  -0.0000000000000000    0.5000000000000000    0.5000000000000000 W
   0.5000000000000000   -0.0000000000000000    0.5000000000000000 W
