Cu6 Nb15 W3 
1.0
9.2687982790349945e+00 0.0000000000000000e+00 0.0000000000000000e+00 
0.0000000000000000e+00 4.6803500245458762e+00 0.0000000000000000e+00 
0.0000000000000000e+00 0.0000000000000000e+00 9.0711273261455823e+00 
Cu Nb W 
6 15 3 
Cartesian
   4.6301169547    0.3895801671    2.1985872723
   6.1792019423    0.3890302260    0.2324358453
   7.7282776611    0.3895801671    2.1985872723
   4.6044794587    2.7323649426    4.5600375646
   6.1792019423    2.7294256828    6.5576721532
   7.7539151571    2.7323649426    4.5600375646
   1.5448028028    0.3900304168    2.2531319609
   3.1230937737    0.3894280558    0.0168020863
   3.1817652668    0.3911302991    4.4677116307
   1.5448028028    2.7308157467    4.4697617054
   9.2353008421    0.3894280558    0.0168022677
   6.1792019423    2.7297579876    2.3521161023
   9.1766293489    0.3911302991    4.4677025595
   6.1792019423    0.3921829098    4.5165959358
   1.5448028028    0.3899213646    6.7780007649
   3.1363666929    2.7297860697    6.8374620045
   4.7151859853    2.7293461168    9.0625641819
   7.6432086305    2.7293461168    9.0625641819
   4.7293950531    0.3892881133    6.8775563873
   9.2220279229    2.7297860697    6.8374620045
   7.6290088315    0.3892881133    6.8775563873
   1.5448028028    2.7298141518    0.0890117068
   3.1517250916    2.7299966855    2.2461199795
   9.2066695242    2.7299966855    2.2461199795
