Al2 Ni4 
1.0
4.0289129586149173e+00 0.0000000000000000e+00 0.0000000000000000e+00 
-2.0144896996663393e+00 3.4891484412185343e+00 0.0000000000000000e+00 
7.5978247546639605e-06 2.0748946260690082e-06 4.9562763224073763e+00 
Al Ni 
2 4 
Cartesian
   2.0144817658    1.1630499950    4.0072832261
   0.0000095247    2.3261005211    0.9489930963
   2.0144498063    1.1630489689    1.5564343224
  -0.0000189495    2.3261015472    3.3998420001
   2.0142659013    3.4891494787    2.4781381612
   0.0000972998    0.0000020753    4.9562763224
