fcc_Al4_Cu4_Nb0_Ni16_Ta4_W4_Zr0         
   1.00000000000000     
     7.6467713308657705    0.0000000000000000    0.0000000000000000
     0.0000000000000000    7.3453604331700584    0.0000000000000000
     0.0000000000000000    0.0000000000000000    7.5577318866975300
   Al   Cu   Ni   Ta   W 
     4     4    16     4     4
Direct
  0.5060330821016731 -0.0085872863028056  0.5033319903025077
  0.7439669178983269  0.2585872863028056  0.5033319903025077
  0.5060330821016731  0.2585872863028056  0.7466680096974923
  0.7439669178983269 -0.0085872863028056  0.7466680096974923
 -0.0056230942660727 -0.0135268866115808  0.5140596370427682
  0.2556230942660728  0.2635268866115805  0.5140596370427682
 -0.0056230942660727  0.2635268866115805  0.7359403629572318
  0.2556230942660728 -0.0135268866115808  0.7359403629572318
  0.0022158069945516  0.5120114946308425  0.4997699038382729
  0.2477841930054485  0.7379885053691575  0.4997699038382729
  0.0022158069945516  0.7379885053691575  0.7502300961617273
  0.2477841930054485  0.5120114946308425  0.7502300961617273
  0.5012384332839533  0.0014983389454038  0.0015987679310962
  0.7487615667160467  0.2485016610545962  0.0015987679310962
  0.5012384332839533  0.2485016610545962  0.2484012320689039
  0.7487615667160467  0.0014983389454038  0.2484012320689039
  0.4998512327973536  0.5001338680189279  0.5075989954783868
  0.7501487672026468  0.7498661319810721  0.5075989954783868
  0.4998512327973536  0.7498661319810721  0.7424010045216132
  0.7501487672026468  0.5001338680189279  0.7424010045216132
  0.0011209518872357  0.5008121100474513 -0.0037115008535505
  0.2488790481127643  0.7491878899525487 -0.0037115008535505
  0.0011209518872357  0.7491878899525487  0.2537115008535505
  0.2488790481127643  0.5008121100474513  0.2537115008535505
 -0.0013518241924184 -0.0111056030674001 -0.0118073529427467
  0.2513518241924182  0.2611056030674001 -0.0118073529427467
 -0.0013518241924184  0.2611056030674001  0.2618073529427469
  0.2513518241924182 -0.0111056030674001  0.2618073529427469
  0.4993176318313123  0.5124519685831431 -0.0118327049764855
  0.7506823681686876  0.7375480314168569 -0.0118327049764855
  0.4993176318313123  0.7375480314168569  0.2618327049764855
  0.7506823681686876  0.5124519685831431  0.2618327049764855
 
  0.00000000E+00  0.00000000E+00  0.00000000E+00
  0.00000000E+00  0.00000000E+00  0.00000000E+00
  0.00000000E+00  0.00000000E+00  0.00000000E+00
  0.00000000E+00  0.00000000E+00  0.00000000E+00
  0.00000000E+00  0.00000000E+00  0.00000000E+00
  0.00000000E+00  0.00000000E+00  0.00000000E+00
  0.00000000E+00  0.00000000E+00  0.00000000E+00
  0.00000000E+00  0.00000000E+00  0.00000000E+00
  0.00000000E+00  0.00000000E+00  0.00000000E+00
  0.00000000E+00  0.00000000E+00  0.00000000E+00
  0.00000000E+00  0.00000000E+00  0.00000000E+00
  0.00000000E+00  0.00000000E+00  0.00000000E+00
  0.00000000E+00  0.00000000E+00  0.00000000E+00
  0.00000000E+00  0.00000000E+00  0.00000000E+00
  0.00000000E+00  0.00000000E+00  0.00000000E+00
  0.00000000E+00  0.00000000E+00  0.00000000E+00
  0.00000000E+00  0.00000000E+00  0.00000000E+00
  0.00000000E+00  0.00000000E+00  0.00000000E+00
  0.00000000E+00  0.00000000E+00  0.00000000E+00
  0.00000000E+00  0.00000000E+00  0.00000000E+00
  0.00000000E+00  0.00000000E+00  0.00000000E+00
  0.00000000E+00  0.00000000E+00  0.00000000E+00
  0.00000000E+00  0.00000000E+00  0.00000000E+00
  0.00000000E+00  0.00000000E+00  0.00000000E+00
  0.00000000E+00  0.00000000E+00  0.00000000E+00
  0.00000000E+00  0.00000000E+00  0.00000000E+00
  0.00000000E+00  0.00000000E+00  0.00000000E+00
  0.00000000E+00  0.00000000E+00  0.00000000E+00
  0.00000000E+00  0.00000000E+00  0.00000000E+00
  0.00000000E+00  0.00000000E+00  0.00000000E+00
  0.00000000E+00  0.00000000E+00  0.00000000E+00
  0.00000000E+00  0.00000000E+00  0.00000000E+00
