Ni12 Ta8 W12 
1.0
8.0322960976020639e+00 0.0000000000000000e+00 0.0000000000000000e+00 
-2.2968198907083844e-06 8.4244476290069397e+00 0.0000000000000000e+00 
1.2807489708836619e-06 -1.1008176796666513e-05 6.8645977576446207e+00 
Ni Ta W 
12 8 12 
Cartesian
   0.1079032778    0.0698391167    3.4518698470
   1.9001682475    2.0362592765    3.4518629824
   0.1079022514    2.0362565872    5.1288773500
   1.9001690965    0.0698362590    5.1288773500
   2.0108288972    4.1371456267    4.9481668141
   0.0867227571    0.0144436417    6.8229227847
   1.9213500261    2.0916446138    6.8229227847
   0.0867220490    2.0916527362    1.7578244124
   1.9213496475    0.0144518484    1.7578244124
   8.0295405698    4.1371393120    3.6325803830
   2.0108280366    6.3934001493    3.6325803830
   8.0295402002    6.3934064641    4.9481668141
   3.8005051305    4.1909832249    6.8480060249
   3.8801304083    0.0209072636    6.7925469396
   3.8801289118    2.0851911362    1.7882002575
   6.2398643072    4.1909914278    1.7327411722
   6.1602416741    2.0851831112    6.7925469396
   6.1602413032    0.0209126770    1.7882002575
   3.8005035903    6.3395625511    1.7327411722
   6.2398646758    6.3395543482    6.8480060249
   3.9549494794    4.2088737903    3.4412846373
   3.8655993776    0.0036064991    3.5135963101
   3.8655990952    2.1024896935    5.0671508870
   0.2725286916    4.1480525208    6.6727597087
   1.7355454752    4.1480601617    1.9079943529
   6.0854199486    4.2088710671    5.1394625598
   6.1747714813    2.1024921847    3.5136031747
   6.1747723434    0.0036038899    5.0671440224
   3.9549492202    6.3216719858    5.1394556952
   1.7355457550    6.3824856144    6.6727528441
   0.2725263902    6.3824932552    1.9079943529
   6.0854190557    6.3216747090    3.4412846373
