bcc_Al3_Cu6_Nb6_Ni3_Ta0_W3_Zr3          
   1.00000000000000     
     8.4374553420593870    0.0000000000000000    0.0000000000000000
     0.0000000000000000    7.7976108051301125    0.0136058535677895
     0.0000000000000000    0.0818981249303238    5.6614061799715314
   Al   Cu   Nb   Ni   W    Zr
     3     6     6     3     3     3
Direct
 -0.0000000000000000  0.4993780863774926 -0.0183253901368693
  0.3333333333333357  0.4993780863774926 -0.0183253901368693
  0.6666666666666643  0.4993780863774926 -0.0183253901368693
 -0.0000000000000000  0.4987779963656350  0.5098910624341336
  0.3333333333333357  0.4987779963656350  0.5098910624341336
  0.6666666666666643  0.4987779963656350  0.5098910624341336
 -0.0000000000000000  0.0006230166877099  0.5139013730013813
  0.3333333333333357  0.0006230166877099  0.5139013730013813
  0.6666666666666643  0.0006230166877099  0.5139013730013813
  0.1666666666666643  0.2387467833915636  0.7499798373832220
  0.5000000000000000  0.2387467833915636  0.7499798373832220
  0.8333333333333357  0.2387467833915636  0.7499798373832220
  0.1666666666666643  0.2447400443921791  0.2505743660358804
  0.5000000000000000  0.2447400443921791  0.2505743660358804
  0.8333333333333357  0.2447400443921791  0.2505743660358804
 -0.0000000000000000  0.0000619636778444 -0.0145780724080104
  0.3333333333333357  0.0000619636778444 -0.0145780724080104
  0.6666666666666643  0.0000619636778444 -0.0145780724080104
  0.1666666666666643  0.7581036371763380  0.7543151153035936
  0.5000000000000000  0.7581036371763380  0.7543151153035935
  0.8333333333333357  0.7581036371763380  0.7543151153035935
  0.1666666666666643  0.7595684719312376  0.2542417083866690
  0.5000000000000000  0.7595684719312376  0.2542417083866690
  0.8333333333333357  0.7595684719312376  0.2542417083866690
 
  0.00000000E+00  0.00000000E+00  0.00000000E+00
  0.00000000E+00  0.00000000E+00  0.00000000E+00
  0.00000000E+00  0.00000000E+00  0.00000000E+00
  0.00000000E+00  0.00000000E+00  0.00000000E+00
  0.00000000E+00  0.00000000E+00  0.00000000E+00
  0.00000000E+00  0.00000000E+00  0.00000000E+00
  0.00000000E+00  0.00000000E+00  0.00000000E+00
  0.00000000E+00  0.00000000E+00  0.00000000E+00
  0.00000000E+00  0.00000000E+00  0.00000000E+00
  0.00000000E+00  0.00000000E+00  0.00000000E+00
  0.00000000E+00  0.00000000E+00  0.00000000E+00
  0.00000000E+00  0.00000000E+00  0.00000000E+00
  0.00000000E+00  0.00000000E+00  0.00000000E+00
  0.00000000E+00  0.00000000E+00  0.00000000E+00
  0.00000000E+00  0.00000000E+00  0.00000000E+00
  0.00000000E+00  0.00000000E+00  0.00000000E+00
  0.00000000E+00  0.00000000E+00  0.00000000E+00
  0.00000000E+00  0.00000000E+00  0.00000000E+00
  0.00000000E+00  0.00000000E+00  0.00000000E+00
  0.00000000E+00  0.00000000E+00  0.00000000E+00
  0.00000000E+00  0.00000000E+00  0.00000000E+00
  0.00000000E+00  0.00000000E+00  0.00000000E+00
  0.00000000E+00  0.00000000E+00  0.00000000E+00
  0.00000000E+00  0.00000000E+00  0.00000000E+00
