W1 
1.0
2.7289629205520889e+00 0.0000000000000000e+00 0.0000000000000000e+00 
-9.0965319221144536e-01 2.5728909019988468e+00 0.0000000000000000e+00 
-9.0965556638784117e-01 -1.2864466945965332e+00 2.2281887899881498e+00 
W 
1 
Cartesian
   0.9095531903    1.2863670207    2.2281887900
