Zr2 W4 
1.0
5.4918958455403919e+00 0.0000000000000000e+00 0.0000000000000000e+00 
2.8322779743313657e+00 4.7054594238667047e+00 0.0000000000000000e+00 
2.6079208037456794e+00 1.4742117815811289e+00 4.4201830111828873e+00 
Zr W 
2 4 
Cartesian
   1.4730510065    0.8721004141    0.6541428838
   9.4251150661    5.3675705075    3.7661683127
   5.3880404685    3.2284488462    2.2098793368
   2.6397724138    2.9918524384    2.1247024102
   6.8374757041    3.7083612504    4.4201609103
   7.0076725851    5.4610536591    2.2955911056
