Zr4 Cu2
1.0
   1.6310028900000000    5.3110624000000000    0.0627107700000000
  -1.6310028900000000    5.3110624000000000    0.0627107700000000
   0.0000000000000000    4.4969794399999996    6.7968366900000001
Zr Cu
4 2
direct
   0.0743249500000000    0.0743249500000000    0.1590624000000000 Zr
   0.9256750500000001    0.9256750500000001    0.8409376000000000 Zr
   0.6594803400000000    0.6594803400000000    0.4394518200000000 Zr
   0.3405196600000000    0.3405196600000000    0.5605481800000001 Zr
   0.3658430200000000    0.3658430200000000    0.1509355700000000 Cu
   0.6341569800000000    0.6341569800000000    0.8490644300000000 Cu
