fcc_Al8_Cu4_Nb0_Ni4_Ta4_W12_Zr0         
   1.00000000000000     
     8.1681589851438403    0.0000000000000000   -0.0000000000000000
    -0.0000000000000000    7.6660020805719764   -0.0000000000000000
    -0.0000000000000000   -0.0000000000000000    7.6660020805719764
   Al   Cu   Ni   Ta   W 
     8     4     4     4    12
Direct
  0.5158079600261205  0.5018285724983695  0.4881832443925810
  0.7341920399738795  0.7481714275016305  0.4881832443925810
  0.5158079600261205  0.7481714275016305  0.7618167556074187
  0.7341920399738795  0.5018285724983695  0.7618167556074187
  0.5158079600261205 -0.0118167556074190  0.0018285724983696
  0.7341920399738795  0.2618167556074190  0.0018285724983696
  0.5158079600261205  0.2618167556074190  0.2481714275016304
  0.7341920399738795 -0.0118167556074190  0.2481714275016304
  0.5131935022432673 -0.0021474611384709  0.4978525388615291
  0.7368064977567327  0.2521474611384709  0.4978525388615291
  0.5131935022432673  0.2521474611384709  0.7521474611384710
  0.7368064977567327 -0.0021474611384709  0.7521474611384710
  0.5072428282838074  0.5018332012120191  0.0018332012120191
  0.7427571717161927  0.7481667987879809  0.0018332012120191
  0.5072428282838074  0.7481667987879809  0.2481667987879809
  0.7427571717161927  0.5018332012120191  0.2481667987879809
 -0.0147369803041619 -0.0057373987169138  0.4942626012830861
  0.2647369803041620  0.2557373987169139  0.4942626012830861
 -0.0147369803041619  0.2557373987169139  0.7557373987169136
  0.2647369803041620 -0.0057373987169138  0.7557373987169136
 -0.0196151107288551 -0.0021539185259905  0.0042236565677240
  0.2696151107288551  0.2521539185259904  0.0042236565677240
 -0.0196151107288551  0.2521539185259904  0.2457763434322760
  0.2696151107288551 -0.0021539185259905  0.2457763434322760
 -0.0147839018125249  0.5049087076892244  0.0049087076892245
  0.2647839018125249  0.7450912923107756  0.0049087076892245
 -0.0147839018125249  0.7450912923107756  0.2450912923107755
  0.2647839018125249  0.5049087076892244  0.2450912923107755
 -0.0196151107288551  0.5042236565677238  0.4978460814740096
  0.2696151107288551  0.7457763434322762  0.4978460814740096
 -0.0196151107288551  0.7457763434322762  0.7521539185259903
  0.2696151107288551  0.5042236565677238  0.7521539185259903
 
  0.00000000E+00  0.00000000E+00  0.00000000E+00
  0.00000000E+00  0.00000000E+00  0.00000000E+00
  0.00000000E+00  0.00000000E+00  0.00000000E+00
  0.00000000E+00  0.00000000E+00  0.00000000E+00
  0.00000000E+00  0.00000000E+00  0.00000000E+00
  0.00000000E+00  0.00000000E+00  0.00000000E+00
  0.00000000E+00  0.00000000E+00  0.00000000E+00
  0.00000000E+00  0.00000000E+00  0.00000000E+00
  0.00000000E+00  0.00000000E+00  0.00000000E+00
  0.00000000E+00  0.00000000E+00  0.00000000E+00
  0.00000000E+00  0.00000000E+00  0.00000000E+00
  0.00000000E+00  0.00000000E+00  0.00000000E+00
  0.00000000E+00  0.00000000E+00  0.00000000E+00
  0.00000000E+00  0.00000000E+00  0.00000000E+00
  0.00000000E+00  0.00000000E+00  0.00000000E+00
  0.00000000E+00  0.00000000E+00  0.00000000E+00
  0.00000000E+00  0.00000000E+00  0.00000000E+00
  0.00000000E+00  0.00000000E+00  0.00000000E+00
  0.00000000E+00  0.00000000E+00  0.00000000E+00
  0.00000000E+00  0.00000000E+00  0.00000000E+00
  0.00000000E+00  0.00000000E+00  0.00000000E+00
  0.00000000E+00  0.00000000E+00  0.00000000E+00
  0.00000000E+00  0.00000000E+00  0.00000000E+00
  0.00000000E+00  0.00000000E+00  0.00000000E+00
  0.00000000E+00  0.00000000E+00  0.00000000E+00
  0.00000000E+00  0.00000000E+00  0.00000000E+00
  0.00000000E+00  0.00000000E+00  0.00000000E+00
  0.00000000E+00  0.00000000E+00  0.00000000E+00
  0.00000000E+00  0.00000000E+00  0.00000000E+00
  0.00000000E+00  0.00000000E+00  0.00000000E+00
  0.00000000E+00  0.00000000E+00  0.00000000E+00
  0.00000000E+00  0.00000000E+00  0.00000000E+00
