Al5 Cu1 W2                              
   1.00000000000000     
     3.7863052255057208    0.0000000000000000    0.0000000000000000
     0.0000000000000000    3.7863052255057208   -0.0000000000000000
    -0.0000000000000000   -0.0000000000000000    8.2507784082654982
   Al   Cu   W 
     5     1     2
Direct
 -0.0000000000000000  0.5000000000000000  0.2609397183967063
  0.5000000000000000 -0.0000000000000000  0.7390602816032937
  0.5000000000000000  0.0000000000000000  0.2609397183967063
  0.0000000000000000  0.5000000000000000  0.7390602816032937
  0.5000000000000000  0.5000000000000000 -0.0000000000000000
  0.0000000000000000  0.0000000000000000  0.5000000000000000
  0.0000000000000000  0.0000000000000000 -0.0000000000000000
  0.5000000000000000  0.5000000000000000  0.5000000000000000
 
  0.00000000E+00  0.00000000E+00  0.00000000E+00
  0.00000000E+00  0.00000000E+00  0.00000000E+00
  0.00000000E+00  0.00000000E+00  0.00000000E+00
  0.00000000E+00  0.00000000E+00  0.00000000E+00
  0.00000000E+00  0.00000000E+00  0.00000000E+00
  0.00000000E+00  0.00000000E+00  0.00000000E+00
  0.00000000E+00  0.00000000E+00  0.00000000E+00
  0.00000000E+00  0.00000000E+00  0.00000000E+00
