Ni3 Nb1 
1.0
4.3183769043495666e+00 0.0000000000000000e+00 0.0000000000000000e+00 
2.1591884521747695e+00 3.7398241023091456e+00 0.0000000000000000e+00 
2.1591884521747566e+00 1.2466080341030410e+00 3.5259399775206983e+00 
Ni Nb 
3 1 
Cartesian
   4.3183769043    2.4932160682    1.7629699888
   6.4775653565    3.7398241023    2.6444549831
   2.1591884522    1.2466080341    0.8814849944
   2.1591884522    1.2466080341    3.5259399775
