bcc_Al6_Cu3_Nb3_Ni3_Ta0_W9_Zr0          
   1.00000000000000     
     9.8949601408695926    0.0000000000000000    0.0000000000000000
     0.0000000000000000    5.6507240543882791    0.0622348893398767
     0.0000000000000000    0.0471549251401787    6.5325897772259145
   Al   Cu   Nb   Ni   W 
     6     3     3     3     9
Direct
  0.0000000000000000  0.5180768825055754  0.4907307853462760
  0.3333333333333357  0.5180768825055754  0.4907307853462760
  0.6666666666666643  0.5180768825055754  0.4907307853462760
  0.1666666666666643  0.7335346799911915  0.7539044968148834
  0.5000000000000000  0.7335346799911915  0.7539044968148834
  0.8333333333333357  0.7335346799911915  0.7539044968148834
  0.0000000000000000  0.5106101858845974  0.0007567525585556
  0.3333333333333357  0.5106101858845974  0.0007567525585556
  0.6666666666666643  0.5106101858845974  0.0007567525585556
  0.0000000000000000 -0.0037539537293861  0.0174453523351225
  0.3333333333333357 -0.0037539537293861  0.0174453523351225
  0.6666666666666643 -0.0037539537293861  0.0174453523351225
  0.1666666666666643  0.7306470536693503  0.2502489248603523
  0.5000000000000000  0.7306470536693503  0.2502489248603522
  0.8333333333333357  0.7306470536693503  0.2502489248603522
  0.0000000000000000  0.0188053021151477  0.4954216117329397
  0.3333333333333357  0.0188053021151477  0.4954216117329397
  0.6666666666666643  0.0188053021151477  0.4954216117329397
  0.1666666666666643  0.2325545214514300  0.7459370460680510
  0.5000000000000000  0.2325545214514300  0.7459370460680510
  0.8333333333333357  0.2325545214514300  0.7459370460680510
  0.1666666666666643  0.2595253281120941  0.2455550302838196
  0.5000000000000000  0.2595253281120941  0.2455550302838196
  0.8333333333333357  0.2595253281120941  0.2455550302838196
 
  0.00000000E+00  0.00000000E+00  0.00000000E+00
  0.00000000E+00  0.00000000E+00  0.00000000E+00
  0.00000000E+00  0.00000000E+00  0.00000000E+00
  0.00000000E+00  0.00000000E+00  0.00000000E+00
  0.00000000E+00  0.00000000E+00  0.00000000E+00
  0.00000000E+00  0.00000000E+00  0.00000000E+00
  0.00000000E+00  0.00000000E+00  0.00000000E+00
  0.00000000E+00  0.00000000E+00  0.00000000E+00
  0.00000000E+00  0.00000000E+00  0.00000000E+00
  0.00000000E+00  0.00000000E+00  0.00000000E+00
  0.00000000E+00  0.00000000E+00  0.00000000E+00
  0.00000000E+00  0.00000000E+00  0.00000000E+00
  0.00000000E+00  0.00000000E+00  0.00000000E+00
  0.00000000E+00  0.00000000E+00  0.00000000E+00
  0.00000000E+00  0.00000000E+00  0.00000000E+00
  0.00000000E+00  0.00000000E+00  0.00000000E+00
  0.00000000E+00  0.00000000E+00  0.00000000E+00
  0.00000000E+00  0.00000000E+00  0.00000000E+00
  0.00000000E+00  0.00000000E+00  0.00000000E+00
  0.00000000E+00  0.00000000E+00  0.00000000E+00
  0.00000000E+00  0.00000000E+00  0.00000000E+00
  0.00000000E+00  0.00000000E+00  0.00000000E+00
  0.00000000E+00  0.00000000E+00  0.00000000E+00
  0.00000000E+00  0.00000000E+00  0.00000000E+00
