Al2 Cu1
1.0
   4.1051820000000001    0.0000000000000000    0.0000000000000000
   0.0000000000000000    4.1051820000000001    0.0000000000000000
   0.0000000000000000    0.0000000000000000    2.8913129999999998
Al Cu
2 1
direct
   0.5000000000000000    0.0000000000000000    0.5000000000000000 Al
   0.0000000000000000    0.5000000000000000    0.5000000000000000 Al
   0.0000000000000000    0.0000000000000000    0.0000000000000000 Cu
