Cu20 Zr4 Nb8 
1.0
8.5930406787410067e+00 0.0000000000000000e+00 0.0000000000000000e+00 
-2.3994073222456058e-07 6.5429557754378207e+00 0.0000000000000000e+00 
2.5075263345714827e-06 -1.0739515222862685e-06 8.5936695025022374e+00 
Cu Zr Nb 
20 4 8 
Cartesian
   4.2007691874    3.4233982529    4.2010754920
   4.4021371815    6.5269124400    0.0633121413
   6.3391719970    1.6517822635    0.0633118835
   4.4021293571    1.6517820108    2.0851078124
   6.3391638151    6.5269121873    2.0851078124
   4.4168571984    3.2954578043    0.1310173665
   6.3244434265    4.8832368823    0.1310173665
   4.4168576906    4.8832366465    2.0173982904
   6.3244440352    3.2954575685    2.0173982904
   6.5405338128    4.7552954164    4.2010754920
   0.1310089476    3.2954572686    4.4171804990
   2.0172517813    4.8832363466    4.4171804990
   0.1310094460    4.8832361082    6.3249063792
   2.0172523962    3.2954570302    6.3249063792
   0.0633085538    6.5269118977    4.4024595431
   2.0849564630    1.6517817212    4.4024595431
   0.0633092978    1.6517814792    6.3396273350
   2.0849568495    6.5269116556    6.3396273350
   4.2007698213    4.7552951240    6.5410113861
   6.5405345444    3.4233979604    6.5410113861
   4.2458224044    6.3795383814    4.2461321012
   6.4954806221    1.7991552767    4.2461321012
   4.2458232288    1.7991549955    6.4959547769
   6.4954811106    6.3795381002    6.4959547769
   2.1694853741    6.5207487124    2.1696437393
   2.2222124056    3.2901315769    2.2223744954
   8.5718164405    1.6579454646    2.1696437393
   8.5190894398    4.8885625869    2.2223744954
   2.1694874207    1.6579446645    8.5724431388
   2.2222141844    4.8885618000    8.5197123828
   8.5718181305    6.5207479122    8.5724431388
   8.5190913360    3.2901307899    8.5197123828
