Ta4 Ni12                                
   1.00000000000000     
     4.4655001759960022    0.0000000000000000   -0.8523556876496822
     0.0000000000000000    5.1275572553050948    0.0000000000000000
    -0.0040107697124879    0.0000000000000000    8.6517171307062561
   Ta   Ni
     4    12
Direct
  0.3873600623223430  0.7500000000000000  0.6218700335615446
  0.6126399376776570  0.2500000000000000  0.3781299664384555
  0.2104819090412289  0.7500000000000000  0.1274043579438436
  0.7895180909587710  0.2500000000000000  0.8725956420561564
  0.2943647072322747  0.9987555342828668  0.8766268621166988
  0.8853433270534929  0.9976026634938524  0.6265948790822445
  0.7985189345607675  0.7500000000000000  0.8734554037699593
  0.1146566729465071  0.4976026634938524  0.3734051209177554
  0.6329192721649947  0.7500000000000000  0.3760422787962080
  0.2943647072322747  0.5012444657171332  0.8766268621166988
  0.3670807278350052  0.2500000000000000  0.6239577212037920
  0.7056352927677254  0.0012444657171333  0.1233731378833011
  0.7056352927677254  0.4987555342828668  0.1233731378833011
  0.1146566729465071  0.0023973365061476  0.3734051209177554
  0.2014810654392323  0.2500000000000000  0.1265445962300405
  0.8853433270534929  0.5023973365061476  0.6265948790822445
 
  0.00000000E+00  0.00000000E+00  0.00000000E+00
  0.00000000E+00  0.00000000E+00  0.00000000E+00
  0.00000000E+00  0.00000000E+00  0.00000000E+00
  0.00000000E+00  0.00000000E+00  0.00000000E+00
  0.00000000E+00  0.00000000E+00  0.00000000E+00
  0.00000000E+00  0.00000000E+00  0.00000000E+00
  0.00000000E+00  0.00000000E+00  0.00000000E+00
  0.00000000E+00  0.00000000E+00  0.00000000E+00
  0.00000000E+00  0.00000000E+00  0.00000000E+00
  0.00000000E+00  0.00000000E+00  0.00000000E+00
  0.00000000E+00  0.00000000E+00  0.00000000E+00
  0.00000000E+00  0.00000000E+00  0.00000000E+00
  0.00000000E+00  0.00000000E+00  0.00000000E+00
  0.00000000E+00  0.00000000E+00  0.00000000E+00
  0.00000000E+00  0.00000000E+00  0.00000000E+00
  0.00000000E+00  0.00000000E+00  0.00000000E+00
