Al8 Ta22 
1.0
5.3172393642660545e+00 0.0000000000000000e+00 0.0000000000000000e+00 
-1.2785339852086171e-10 9.9990607754447343e+00 0.0000000000000000e+00 
3.4941445299650738e-13 1.5574866701451688e-02 1.0076551439028808e+01 
Al Ta 
8 22 
Cartesian
   2.6586196821    4.3363452686    2.3823184443
   5.3172393642    7.3438992144    0.6462908639
  -0.0000000001    9.3515334692    2.6470899099
   2.6586196821    5.0073178211    5.0382757195
   5.3172393643    0.0155748667   10.0765514390
  -0.0000000000    2.6707364294    9.4302615828
   5.3172393643    0.6631031729    7.4294615291
   2.6586196821    5.6782903736    7.6942329947
   3.9810171120    1.8286185481    1.7792166876
   1.3362222522    1.8286185481    1.7792166876
  -0.0000000001    4.0233868623    4.0074948901
   5.3172393642    4.6351282309    1.3220435488
  -0.0000000000    1.3575702881    4.6628334894
   2.6586196821    2.3696307222    4.3882172331
   1.3266299523    6.7960827118    3.1511693957
   3.9906094118    6.7960827118    3.1511693957
   2.6586196820    9.0027556998    1.0100533631
   2.6586196820    9.6328580103    3.7021854580
   2.6586196821    6.3257806106    0.3847842009
   1.3266299524    3.2185529303    6.9253820434
   3.9906094118    3.2185529303    6.9253820434
   2.6586196821    1.0118799424    9.0664980759
   2.6586196821    0.3817736322    6.3743659810
   2.6586196821    3.6888550331    9.6917682458
   3.9810171119    8.1860170941    8.2973347514
   1.3362222521    8.1860170941    8.2973347514
   5.3172393642    5.9912487798    6.0690565490
  -0.0000000001    5.3795074112    8.7545078902
   5.3172393642    8.6570653541    5.4137179496
   2.6586196820    7.6450049199    5.6883342059
