Zr2 Cu2                                 
   1.00000000000000     
     4.1382159999999999    0.0000000000000000    0.0000000000000000
     0.0000000000000000    3.2421889999999989    0.0000000000000000
     0.0000000000000000    1.5103620000000000    5.2984989999999996
   Zr   Cu
     2     2
Direct
  0.7500000000000000  0.6474019999999996  0.1936749999999989
  0.2500000000000000  0.3525980000000004  0.8063250000000011
  0.7500000000000000  0.9407829999999962  0.6376970000000028
  0.2500000000000000  0.0592169999999967  0.3623029999999972
 
  0.00000000E+00  0.00000000E+00  0.00000000E+00
  0.00000000E+00  0.00000000E+00  0.00000000E+00
  0.00000000E+00  0.00000000E+00  0.00000000E+00
  0.00000000E+00  0.00000000E+00  0.00000000E+00
