Al4 
1.0
2.8509419623580108e+00 0.0000000000000000e+00 0.0000000000000000e+00 
-1.4254707009980367e+00 2.4689880729170928e+00 0.0000000000000000e+00 
0.0000000000000000e+00 0.0000000000000000e+00 9.3903607332245400e+00 
Al 
4 
Cartesian
  -1.4254702483    2.4689880729    0.0000000139
  -0.0000012387    1.6459928716    2.3475901833
  -1.4254702456    2.4689880729    4.6951803666
   1.4254753510    0.8229952013    7.0427705499
