Al2 Ni9 Nb1 
1.0
3.5802072441236725e+00 0.0000000000000000e+00 0.0000000000000000e+00 
-9.3464204094476700e-16 3.5802072441223154e+00 0.0000000000000000e+00 
-1.9262436105472095e-16 4.8156090263692150e-17 1.0971598664588479e+01 
Al Ni Nb 
2 9 1 
Cartesian
   3.5802072441    3.5802072441    3.7336240540
   3.5802072441    3.5802072441    7.2379746106
   1.7901036221    1.7901036221    0.0000000000
   1.7901036221    1.7901036221    3.6593573026
   1.7901036221    3.5802072441    1.8683864514
   3.5802072441    1.7901036221    1.8683864514
   1.7901036221    3.5802072441    5.4857993323
   3.5802072441    1.7901036221    5.4857993323
   1.7901036221    1.7901036221    7.3122413620
   1.7901036221    3.5802072441    9.1032122132
   3.5802072441    1.7901036221    9.1032122132
   0.0000000000    3.5802072441    0.0000000000
