Nb1 Al2 Ni9                             
   1.00000000000000     
     3.6199333257817115    0.0000000000000000    0.0000000000000000
     0.0000000000000000    3.6199343560400297    0.0000000000000000
     0.0000000000000000   -0.0000000000000000   10.6885012280846716
   Nb   Al   Ni
     1     2     9
Direct
  0.0000000000000000  0.0000000000000000 -0.0000000000000000
  0.0000000000000000  0.0000000000000000  0.3393479009534228
 -0.0000000000000000 -0.0000000000000000  0.6606520990465771
  0.5000000000000000  0.5000000000000000 -0.0000000000000000
  0.5000000000000000  0.5000000000000000  0.3362653953948924
  0.5000000000000000  0.5000000000000000  0.6637346046051077
  0.5000000000000000  0.0000000000000000  0.1710559766268845
  0.5000000000000000  0.0000000000000000  0.5000000000000000
  0.5000000000000000 -0.0000000000000000  0.8289440233731153
  0.0000000000000000  0.5000000000000000  0.1710559766268845
  0.0000000000000000  0.5000000000000000  0.5000000000000000
  0.0000000000000000  0.5000000000000000  0.8289440233731153
 
  0.00000000E+00  0.00000000E+00  0.00000000E+00
  0.00000000E+00  0.00000000E+00  0.00000000E+00
  0.00000000E+00  0.00000000E+00  0.00000000E+00
  0.00000000E+00  0.00000000E+00  0.00000000E+00
  0.00000000E+00  0.00000000E+00  0.00000000E+00
  0.00000000E+00  0.00000000E+00  0.00000000E+00
  0.00000000E+00  0.00000000E+00  0.00000000E+00
  0.00000000E+00  0.00000000E+00  0.00000000E+00
  0.00000000E+00  0.00000000E+00  0.00000000E+00
  0.00000000E+00  0.00000000E+00  0.00000000E+00
  0.00000000E+00  0.00000000E+00  0.00000000E+00
  0.00000000E+00  0.00000000E+00  0.00000000E+00
