Al16 Ni4 W12 
1.0
7.7090233391090299e+00 0.0000000000000000e+00 0.0000000000000000e+00 
-1.0215406932738239e-10 8.0181701214810808e+00 0.0000000000000000e+00 
1.0999955084844905e-09 2.6173056439247772e-09 7.7090029303851129e+00 
Al Ni W 
16 4 12 
Cartesian
   5.8233808128    2.0346106696    3.8270574148
   3.8128983624    2.0346106703    5.8091962482
   1.9546999589    2.0346106709    7.6673897326
   7.6815792163    2.0346106690    1.9688639304
   3.8128983620    7.9881019848    3.8270574148
   5.8233808130    7.9881019855    5.8091962482
   7.6815792170    7.9881019861    7.6673897326
   1.9546999580    7.9881019842    1.9688639304
   3.7296023649    4.0409733246    3.9196579580
   5.9066768100    5.9817393299    3.9196579580
   3.7296023651    5.9817393305    5.7165957050
   5.9066768103    4.0409733253    5.7165957050
   0.0651555870    4.0409733259    7.5840939559
   1.8620991705    5.9817393311    7.5840939559
   0.0651557404    5.9817393292    2.0521597071
   1.8620991698    4.0409733240    2.0521597071
   7.6627075274    3.9713435353    3.8081857756
   1.9735716478    3.9713435360    5.8280678874
   1.9735716475    6.0513691192    3.8081857756
   7.6627075276    6.0513691199    5.8280678874
   5.7949345173    2.0569813656    7.6958282444
   3.8413446579    2.0569813636    1.9404254186
   1.9032653547    2.0126729562    3.8784918823
   0.0239881687    2.0126729568    5.7577617807
   3.8413446587    7.9657312915    7.6958282444
   5.7949345164    7.9657312895    1.9404254186
   0.0239880142    8.0100396983    3.8784918823
   1.9032653549    8.0100396989    5.7577617807
   3.8491770265    4.0787789981    7.7036683004
   5.7871021495    5.9439336590    7.7036683004
   3.8491770256    5.9439336571    1.9325853626
   5.7871021487    4.0787789961    1.9325853626
