Al4 Cu16 
1.0
6.3461799694168040e+00 0.0000000000000000e+00 0.0000000000000000e+00 
-5.7437743786564830e-15 6.3461799694165801e+00 0.0000000000000000e+00 
-1.2921979239653615e-15 -1.0361793188892177e-14 6.3461799694166920e+00 
Al Cu 
4 16 
Cartesian
   2.7866520478    5.9597420325    3.5595279216
   5.9597420325    3.5595279216    2.7866520478
   3.5595279216    2.7866520478    5.9597420325
   0.3864385715    0.3864385715    0.3864385715
   5.1258222537    1.9527322689    1.2203577158
   1.9527322689    1.2203577158    5.1258222537
   1.2203577158    5.1258222537    1.9527322689
   4.3934477005    4.3934477005    4.3934477005
   0.3158557233    5.5542845943    4.4426813647
   1.9034986047    3.4889457080    3.9649853598
   2.3811946096    5.0765885895    6.0303242462
   3.4889457080    3.9649853598    1.9034986047
   5.0765885895    6.0303242462    2.3811946096
   5.5542845943    4.4426813647    0.3158557233
   6.0303242462    2.3811946096    5.0765885895
   4.4426813647    0.3158557233    5.5542845943
   3.9649853598    1.9034986047    3.4889457080
   2.8572342615    0.7918953751    1.2695913800
   1.2695913800    2.8572342615    0.7918953751
   0.7918953751    1.2695913800    2.8572342615
