bcc_Al9_Cu3_Nb9_Ni0_Ta0_W3_Zr0          
   1.00000000000000     
    10.4971094949470789    0.0000000000000000    0.0000000000000000
     0.0000000000000000    6.0742501583953405   -0.0193371423106768
     0.0000000000000000   -0.0192800229190760    6.1048634251012226
   Al   Cu   Nb   W 
     9     3     9     3
Direct
 -0.0000000000000000  0.5142297365702069  0.0170403209675465
  0.3333333333333357  0.5142297365702069  0.0170403209675465
  0.6666666666666643  0.5142297365702069  0.0170403209675465
  0.1666666666666643  0.2441786863580028  0.2463796891943557
  0.5000000000000000  0.2441786863580028  0.2463796891943557
  0.8333333333333357  0.2441786863580028  0.2463796891943557
 -0.0000000000000000  0.5111719598157226  0.4876449407204891
  0.3333333333333357  0.5111719598157226  0.4876449407204891
  0.6666666666666643  0.5111719598157226  0.4876449407204891
  0.1666666666666643  0.7290094464234391  0.2474421531004502
  0.5000000000000000  0.7290094464234391  0.2474421531004502
  0.8333333333333357  0.7290094464234391  0.2474421531004502
 -0.0000000000000000 -0.0035668525415107  0.4882144897904078
  0.3333333333333357 -0.0035668525415107  0.4882144897904078
  0.6666666666666643 -0.0035668525415107  0.4882144897904078
  0.1666666666666643  0.2587707272415855  0.7537527537189755
  0.5000000000000000  0.2587707272415855  0.7537527537189755
  0.8333333333333357  0.2587707272415855  0.7537527537189755
  0.1666666666666643  0.7466544966159486  0.7540857634729035
  0.5000000000000000  0.7466544966159486  0.7540857634729035
  0.8333333333333357  0.7466544966159486  0.7540857634729035
 -0.0000000000000000 -0.0004482004833949  0.0054398890348717
  0.3333333333333357 -0.0004482004833949  0.0054398890348717
  0.6666666666666643 -0.0004482004833949  0.0054398890348717
 
  0.00000000E+00  0.00000000E+00  0.00000000E+00
  0.00000000E+00  0.00000000E+00  0.00000000E+00
  0.00000000E+00  0.00000000E+00  0.00000000E+00
  0.00000000E+00  0.00000000E+00  0.00000000E+00
  0.00000000E+00  0.00000000E+00  0.00000000E+00
  0.00000000E+00  0.00000000E+00  0.00000000E+00
  0.00000000E+00  0.00000000E+00  0.00000000E+00
  0.00000000E+00  0.00000000E+00  0.00000000E+00
  0.00000000E+00  0.00000000E+00  0.00000000E+00
  0.00000000E+00  0.00000000E+00  0.00000000E+00
  0.00000000E+00  0.00000000E+00  0.00000000E+00
  0.00000000E+00  0.00000000E+00  0.00000000E+00
  0.00000000E+00  0.00000000E+00  0.00000000E+00
  0.00000000E+00  0.00000000E+00  0.00000000E+00
  0.00000000E+00  0.00000000E+00  0.00000000E+00
  0.00000000E+00  0.00000000E+00  0.00000000E+00
  0.00000000E+00  0.00000000E+00  0.00000000E+00
  0.00000000E+00  0.00000000E+00  0.00000000E+00
  0.00000000E+00  0.00000000E+00  0.00000000E+00
  0.00000000E+00  0.00000000E+00  0.00000000E+00
  0.00000000E+00  0.00000000E+00  0.00000000E+00
  0.00000000E+00  0.00000000E+00  0.00000000E+00
  0.00000000E+00  0.00000000E+00  0.00000000E+00
  0.00000000E+00  0.00000000E+00  0.00000000E+00
