Ni4 Cu4 Zr4 Ta20 
1.0
9.0300558868944858e+00 0.0000000000000000e+00 0.0000000000000000e+00 
0.0000000000000000e+00 6.7689864633001031e+00 0.0000000000000000e+00 
0.0000000000000000e+00 0.0000000000000000e+00 8.9777322839060716e+00 
Ni Cu Zr Ta 
4 4 4 20 
Cartesian
   4.5005166436    0.1542503097    0.0243975261
   4.5005166436    1.5379949523    2.2200315946
   6.7870532150    1.5379949523    0.0243974364
   6.7870532150    0.1542503097    2.2200315946
   4.6564115285    3.2219292527    0.2349382761
   6.6311583301    3.2219292527    2.0094947948
   6.6311583301    5.2393038264    0.2349382761
   4.6564115285    5.2393038264    2.0094947948
   4.5415943679    3.3515688815    4.2904492807
   6.7459754908    5.1096641976    4.2904492807
   6.7459754908    3.3515688815    6.9317160741
   4.5415943679    5.1096641976    6.9317160741
   2.3415928221    1.6950692832    0.0408925830
   2.2546785342    1.6771179311    4.4516085530
   0.0028318255    0.0151269925    4.4516085530
   2.3415928221    6.7661637959    2.2035395004
   2.3350099113    3.3877152692    2.1996970310
   2.2541006106    5.0930260289    4.4655060826
   2.3350099113    5.0735178099    0.0447337955
   0.0034150317    3.3682070502    4.4655060826
   4.5168791049    0.0449664448    4.3919425442
   8.9459770365    1.6950692832    2.2035395004
   6.7706907537    1.6472802387    4.3919425442
   8.9459770365    6.7661637959    0.0408923137
   8.9525599473    5.0735178099    2.1996970310
   8.9525599473    3.3877152692    0.0447338853
   0.0028321687    1.6771179311    6.7705568019
   2.2546785342    0.0151267894    6.7705568019
   2.2541006106    3.3682070502    6.7566592723
   0.0034150227    5.0930260289    6.7566592723
   4.5168791049    1.6472802387    6.8302228107
   6.7706907537    0.0449661063    6.8302228107
