bcc_Al0_Cu12_Nb3_Ni9_Ta0_W0_Zr0         
   1.00000000000000     
     7.7824168636558246    0.0000000000000000    0.0000000000000000
     0.0000000000000000    5.1447033041941657   -0.0314532967078612
     0.0000000000000000   -0.0302553431623562    7.3923829465383406
   Cu   Nb   Ni
    12     3     9
Direct
  0.1666666666666643  0.2508484856903104  0.7463521592887993
  0.5000000000000000  0.2508484856903104  0.7463521592887993
  0.8333333333333357  0.2508484856903104  0.7463521592887993
 -0.0000000000000000 -0.0160864471958417  0.5145759054985108
  0.3333333333333357 -0.0160864471958417  0.5145759054985108
  0.6666666666666643 -0.0160864471958417  0.5145759054985108
 -0.0000000000000000 -0.0065333986005005 -0.0146415976004203
  0.3333333333333357 -0.0065333986005005 -0.0146415976004203
  0.6666666666666643 -0.0065333986005005 -0.0146415976004203
 -0.0000000000000000  0.5103470998484634 -0.0117153019464850
  0.3333333333333357  0.5103470998484634 -0.0117153019464850
  0.6666666666666643  0.5103470998484634 -0.0117153019464850
  0.1666666666666643  0.2556113258352002  0.2571672163982825
  0.5000000000000000  0.2556113258352002  0.2571672163982825
  0.8333333333333357  0.2556113258352002  0.2571672163982825
  0.1666666666666643  0.7566487171626499  0.2528120466055251
  0.5000000000000000  0.7566487171626499  0.2528120466055251
  0.8333333333333357  0.7566487171626499  0.2528120466055251
 -0.0000000000000000  0.5049386326755031  0.5075349058822102
  0.3333333333333357  0.5049386326755031  0.5075349058822102
  0.6666666666666643  0.5049386326755031  0.5075349058822102
  0.1666666666666643  0.7442255845842153  0.7479146658735774
  0.5000000000000000  0.7442255845842154  0.7479146658735774
  0.8333333333333357  0.7442255845842153  0.7479146658735774
 
  0.00000000E+00  0.00000000E+00  0.00000000E+00
  0.00000000E+00  0.00000000E+00  0.00000000E+00
  0.00000000E+00  0.00000000E+00  0.00000000E+00
  0.00000000E+00  0.00000000E+00  0.00000000E+00
  0.00000000E+00  0.00000000E+00  0.00000000E+00
  0.00000000E+00  0.00000000E+00  0.00000000E+00
  0.00000000E+00  0.00000000E+00  0.00000000E+00
  0.00000000E+00  0.00000000E+00  0.00000000E+00
  0.00000000E+00  0.00000000E+00  0.00000000E+00
  0.00000000E+00  0.00000000E+00  0.00000000E+00
  0.00000000E+00  0.00000000E+00  0.00000000E+00
  0.00000000E+00  0.00000000E+00  0.00000000E+00
  0.00000000E+00  0.00000000E+00  0.00000000E+00
  0.00000000E+00  0.00000000E+00  0.00000000E+00
  0.00000000E+00  0.00000000E+00  0.00000000E+00
  0.00000000E+00  0.00000000E+00  0.00000000E+00
  0.00000000E+00  0.00000000E+00  0.00000000E+00
  0.00000000E+00  0.00000000E+00  0.00000000E+00
  0.00000000E+00  0.00000000E+00  0.00000000E+00
  0.00000000E+00  0.00000000E+00  0.00000000E+00
  0.00000000E+00  0.00000000E+00  0.00000000E+00
  0.00000000E+00  0.00000000E+00  0.00000000E+00
  0.00000000E+00  0.00000000E+00  0.00000000E+00
  0.00000000E+00  0.00000000E+00  0.00000000E+00
