Ni6 Zr6 Nb3 W9 
1.0
9.6984966591307860e+00 0.0000000000000000e+00 0.0000000000000000e+00 
1.1208485627936952e-06 6.5472635602527465e+00 0.0000000000000000e+00 
-1.2024881380947907e-06 -2.9139896392781927e-07 6.1511688885922684e+00 
Ni Zr Nb W 
6 6 3 9 
Cartesian
   3.2328290083    3.6372208217    3.0755844443
   3.2328294483    6.2073098487    3.0755844443
   9.6984966806    3.6372208217    3.0755844443
   9.6984971205    6.2073098487    3.0755844443
   6.4656676937    3.6372208217    3.0755844443
   6.4656681337    6.2073098487    3.0755844443
   1.6164192956    1.6122766679    1.6527452663
   1.6164187393    1.6122765331    4.4984236223
   4.8492482825    1.6122766679    1.6527452663
   4.8492477262    1.6122765331    4.4984236223
   8.0820772694    1.6122766679    1.6527452663
   8.0820767131    1.6122765331    4.4984236223
   3.2328295583    3.3381354207    0.0000000603
   9.6984972306    3.3381354207    0.0000000094
   6.4656682437    3.3381354207    0.0000000589
   3.2328300908    6.4484719004    0.0000000425
   1.6164192814    4.9403160667    4.6400235301
   1.6164198930    4.9403162150    1.5111453585
   4.8492482682    4.9403160667    4.6400235301
   4.8492488799    4.9403162150    1.5111453585
   0.0000018887    6.4484719004    0.0000000973
   6.4656687762    6.4484719004    0.0000001430
   8.0820772551    4.9403160667    4.6400235301
   8.0820778668    4.9403162150    1.5111453585
