Ni2                                     
   1.00000000000000     
     2.4748071263044804    0.0000000000000000    0.0000000000000000
    -1.2374035631522402    2.1432456448782995   -0.0000000000000000
     0.0000000000000000    0.0000000000000000    4.0911338732586220
   Ni
     2
Direct
  0.3333330000000032  0.6666669999999968  0.2500000000000000
  0.6666669999999968  0.3333330000000032  0.7500000000000000
 
  0.00000000E+00  0.00000000E+00  0.00000000E+00
  0.00000000E+00  0.00000000E+00  0.00000000E+00
