Zr1 Al1 Cu2                             
   1.00000000000000     
     3.8290677643777329    0.0000000012906741    2.2107131872585675
     1.2763562655171747    3.6100803519502223    2.2107131872585661
    -0.0000000048726356   -0.0000000034454741    4.4214274013964392
   Zr   Al   Cu
     1     1     2
Direct
  0.5000000000000000  0.5000000000000000  0.5000000000000000
  0.0000000000000000 -0.0000000000000000  0.0000000000000000
  0.2500000000000000  0.2500000000000000  0.2500000000000000
  0.7500000000000000  0.7500000000000000  0.7500000000000000
 
  0.00000000E+00  0.00000000E+00  0.00000000E+00
  0.00000000E+00  0.00000000E+00  0.00000000E+00
  0.00000000E+00  0.00000000E+00  0.00000000E+00
  0.00000000E+00  0.00000000E+00  0.00000000E+00
