Ta4 Cu3 Ni9                             
   1.00000000000000     
     4.3268209382619718    0.0000000000000000    0.0000000000000000
     0.0000000000000000    4.4931041434948682    0.0000000000000000
     0.0000000000000000    0.0000000000000000   10.3987114132262590
   Ta   Cu   Ni
     4     3     9
Direct
  0.5000000000000000  0.6640283951645529  0.2549971172889670
  0.5000000000000000  0.6640283951645529  0.7450028827110329
 -0.0000000000000000  0.3346355905433882 -0.0000000000000000
 -0.0000000000000000  0.3490245341224013  0.5000000000000000
 -0.0000000000000000  0.3118720130099032  0.2498099623856951
 -0.0000000000000000  0.3118720130099032  0.7501900376143050
  0.5000000000000000  0.6874709607162786 -0.0000000000000000
  0.5000000000000000  0.6770024871877753  0.5000000000000000
  0.5000000000000000  0.1663084380917296  0.3770101801530775
  0.5000000000000000  0.1693649154832927  0.8749276511297749
  0.5000000000000000  0.1693649154832927  0.1250723488702251
  0.5000000000000000  0.1663084380917296  0.6229898198469225
  0.0000000000000000  0.8362540742466602  0.3755053550424353
 -0.0000000000000000  0.8281058777189272  0.8738052674460512
 -0.0000000000000000  0.8281058777189272  0.1261947325539485
  0.0000000000000000  0.8362540742466602  0.6244946449575648
 
  0.00000000E+00  0.00000000E+00  0.00000000E+00
  0.00000000E+00  0.00000000E+00  0.00000000E+00
  0.00000000E+00  0.00000000E+00  0.00000000E+00
  0.00000000E+00  0.00000000E+00  0.00000000E+00
  0.00000000E+00  0.00000000E+00  0.00000000E+00
  0.00000000E+00  0.00000000E+00  0.00000000E+00
  0.00000000E+00  0.00000000E+00  0.00000000E+00
  0.00000000E+00  0.00000000E+00  0.00000000E+00
  0.00000000E+00  0.00000000E+00  0.00000000E+00
  0.00000000E+00  0.00000000E+00  0.00000000E+00
  0.00000000E+00  0.00000000E+00  0.00000000E+00
  0.00000000E+00  0.00000000E+00  0.00000000E+00
  0.00000000E+00  0.00000000E+00  0.00000000E+00
  0.00000000E+00  0.00000000E+00  0.00000000E+00
  0.00000000E+00  0.00000000E+00  0.00000000E+00
  0.00000000E+00  0.00000000E+00  0.00000000E+00
