Ta20 Al10
1.0
   0.0000000000000000    0.0000000000000000    5.1954495900000000
   9.9045985000000005   -0.0000000000000000    0.0000000000000000
  -0.0000000000000000    9.9045985000000005    0.0000000000000000
Ta Al
20 10
direct
   0.5000000000000000    0.1020166100000000    0.8979833900000000 Ta
   0.5000000000000000    0.8979833900000000    0.1020166100000000 Ta
   0.0000000000000000    0.3979833900000000    0.3979833900000000 Ta
   0.0000000000000000    0.6020166100000001    0.6020166100000001 Ta
   0.5000000000000000    0.3707710300000000    0.9642137200000001 Ta
   0.5000000000000000    0.6292289700000000    0.0357862800000000 Ta
   0.0000000000000000    0.1292289700000000    0.4642137200000000 Ta
   0.0000000000000000    0.8707710300000000    0.5357862800000001 Ta
   0.5000000000000000    0.9642137200000001    0.3707710300000000 Ta
   0.5000000000000000    0.0357862800000000    0.6292289700000000 Ta
   0.0000000000000000    0.4642137200000000    0.1292289700000000 Ta
   0.0000000000000000    0.5357862800000001    0.8707710300000000 Ta
   0.2482326200000000    0.3185507999999990    0.6814492000000000 Ta
   0.2482326200000000    0.6814492000000000    0.3185507999999990 Ta
   0.7482326200000000    0.1814492000000000    0.1814492000000000 Ta
   0.7482326200000000    0.8185507999999990    0.8185507999999990 Ta
   0.7517673800000000    0.6814492000000000    0.3185507999999990 Ta
   0.7517673800000000    0.3185507999999990    0.6814492000000000 Ta
   0.2517673800000000    0.8185507999999990    0.8185507999999990 Ta
   0.2517673800000000    0.1814492000000000    0.1814492000000000 Ta
   0.5000000000000000    0.5000000000000000    0.5000000000000000 Al
   0.0000000000000000   -0.0000000000000000   -0.0000000000000000 Al
   0.5000000000000000    0.4336144300000000    0.2376367600000000 Al
   0.5000000000000000    0.5663855700000000    0.7623632400000000 Al
   0.0000000000000000    0.0663855700000000    0.7376367600000000 Al
   0.0000000000000000    0.9336144300000000    0.2623632400000000 Al
   0.5000000000000000    0.2376367600000000    0.4336144300000000 Al
   0.5000000000000000    0.7623632400000000    0.5663855700000000 Al
   0.0000000000000000    0.7376367600000000    0.0663855700000000 Al
   0.0000000000000000    0.2623632400000000    0.9336144300000000 Al
