Al3 Ni9 Cu6 Zr3 W3 
1.0
8.4354950892922904e+00 0.0000000000000000e+00 0.0000000000000000e+00 
-1.2667557566514200e-04 4.5615276724013132e+00 0.0000000000000000e+00 
1.4957877402911696e-04 -7.2077632950058712e-01 8.5247326771803493e+00 
Al Ni Cu Zr W 
3 9 6 3 3 
Cartesian
   0.1065738695    3.9332318614    4.4001004445
   1.4060043044    0.5317004551    6.6065996270
   2.7051703092    3.9332318614    4.4001004445
   1.4059490480    0.1428015772    2.2603413941
   0.1008361700   -0.3490687004    8.5167194285
   2.7112735142   -0.3490691566    8.5167194285
   0.1184255801    2.7414621011    6.4856677692
   1.4059402533    1.6268725158    4.3933659056
   2.6934507159    2.7414621011    6.4856677692
   3.7819841905    0.4617142481    6.2261834312
   5.6237415773   -0.2801755862    4.4473018893
   7.4655118313    0.4617135273    6.2261919560
   0.1636439291    2.4391846200    2.2621315879
   1.4058442582    2.7592184309    0.1462520188
   2.6481216169    2.4391891815    2.2621315879
   4.2535819829    2.0057881769    4.2499287536
   6.9937597722    2.0057881769    4.2499287536
   5.6237042820    2.0648195519    6.2781672511
   4.0725319804    0.2086336748    2.1439105952
   7.1748455739    0.2086341310    2.1439105952
   5.6237980979   -0.4090977916    7.9305843838
   5.6236258942    2.4896169996    1.8967274465
   4.0009724649    1.8583873560    8.4088133622
   7.2465038940    1.8583873560    8.4088133622
