Cu6 Zr9 Nb9 
1.0
1.0280124165259286e+01 0.0000000000000000e+00 0.0000000000000000e+00 
4.0004361224176695e-05 6.7538758467502271e+00 0.0000000000000000e+00 
4.1353683309867417e-05 2.4407860983281601e-01 6.3958069549408219e+00 
Cu Zr Nb 
6 9 9 
Cartesian
  10.2801439330    3.2235145798    0.1080731480
   3.4267243962    3.2235145798    0.1080731480
   1.7133784399    1.9245822353    1.5362856222
   5.1400830682    1.9245822353    1.5362856222
   6.8534393047    3.2235145798    0.1080731480
   8.5667876966    1.9245822353    1.5362856222
   0.0000014930    0.1789021381    0.0671118420
   3.4267061068    0.1789021381    0.0671118420
   3.4267250133    0.1562397501    3.1186466377
   1.7134183826    5.1207263162    4.9036587965
  10.2801445501    0.1562397501    3.1186466377
   5.1401230110    5.1207263162    4.9036587965
   6.8534210153    0.1789021381    0.0671118420
   6.8534399218    0.1562398177    3.1186466377
   8.5668276393    5.1207263162    4.9036587965
   1.7133965519    4.9288045373    1.5871770581
   1.7133992554    2.0377939642    4.7647994317
  10.2801637955    3.4232949972    3.1016721660
   3.4267442587    3.4232949972    3.1016721660
   5.1401011803    4.9288045373    1.5871770581
   5.1401038838    2.0377939642    4.7647994317
   8.5668058087    4.9288045373    1.5871770581
   8.5668085122    2.0377939642    4.7647994317
   6.8534591672    3.4232949972    3.1016721660
