fcc_Al0_Cu0_Nb16_Ni4_Ta4_W8_Zr0         
   1.00000000000000     
     7.6875434568670018    0.0000000000000000   -0.0000000000000000
     0.0000000000000000    7.6875434568670018    0.0000000000000000
     0.0000000000000000   -0.0000000000000000    9.1913452369014159
   Nb   Ni   Ta   W 
    16     4     4     8
Direct
  0.4953924998287650  0.5051064890803735  0.4919993124769360
  0.7546075001712352  0.7448935109196265  0.4919993124769360
  0.4953924998287650  0.7448935109196265  0.7580006875230645
  0.7546075001712352  0.5051064890803735  0.7580006875230645
  0.0044330034341800  0.5044330034341801  0.4889761589131818
  0.2455669965658199  0.7455669965658199  0.4889761589131818
  0.0044330034341800  0.7455669965658199  0.7610238410868181
  0.2455669965658199  0.5044330034341801  0.7610238410868181
  0.4959095179335912 -0.0040904820664088  0.4871338199961509
  0.7540904820664088  0.2540904820664088  0.4871338199961509
  0.4959095179335912  0.2540904820664088  0.7628661800038493
  0.7540904820664088 -0.0040904820664088  0.7628661800038493
  0.0051064890803739 -0.0046075001712350  0.4919993124769360
  0.2448935109196262  0.2546075001712350  0.4919993124769360
  0.0051064890803739  0.2546075001712350  0.7580006875230645
  0.2448935109196262 -0.0046075001712350  0.7580006875230645
  0.0090457724247217  0.5090457724247219  0.0129030818241706
  0.2409542275752782  0.7409542275752781  0.0129030818241706
  0.0090457724247217  0.7409542275752781  0.2370969181758294
  0.2409542275752782  0.5090457724247219  0.2370969181758294
  0.4847365808922017 -0.0152634191077986  0.0096803434602861
  0.7652634191077989  0.2652634191077983  0.0096803434602861
  0.4847365808922017  0.2652634191077983  0.2403196565397139
  0.7652634191077989 -0.0152634191077986  0.2403196565397139
  0.0166528705937278 -0.0106892918959184  0.0080294561073348
  0.2333471294062723  0.2606892918959186  0.0080294561073348
  0.0166528705937278  0.2606892918959186  0.2419705438926652
  0.2333471294062723 -0.0106892918959184  0.2419705438926652
  0.4893107081040814  0.5166528705937279  0.0080294561073348
  0.7606892918959183  0.7333471294062721  0.0080294561073348
  0.4893107081040814  0.7333471294062721  0.2419705438926652
  0.7606892918959183  0.5166528705937279  0.2419705438926652
 
  0.00000000E+00  0.00000000E+00  0.00000000E+00
  0.00000000E+00  0.00000000E+00  0.00000000E+00
  0.00000000E+00  0.00000000E+00  0.00000000E+00
  0.00000000E+00  0.00000000E+00  0.00000000E+00
  0.00000000E+00  0.00000000E+00  0.00000000E+00
  0.00000000E+00  0.00000000E+00  0.00000000E+00
  0.00000000E+00  0.00000000E+00  0.00000000E+00
  0.00000000E+00  0.00000000E+00  0.00000000E+00
  0.00000000E+00  0.00000000E+00  0.00000000E+00
  0.00000000E+00  0.00000000E+00  0.00000000E+00
  0.00000000E+00  0.00000000E+00  0.00000000E+00
  0.00000000E+00  0.00000000E+00  0.00000000E+00
  0.00000000E+00  0.00000000E+00  0.00000000E+00
  0.00000000E+00  0.00000000E+00  0.00000000E+00
  0.00000000E+00  0.00000000E+00  0.00000000E+00
  0.00000000E+00  0.00000000E+00  0.00000000E+00
  0.00000000E+00  0.00000000E+00  0.00000000E+00
  0.00000000E+00  0.00000000E+00  0.00000000E+00
  0.00000000E+00  0.00000000E+00  0.00000000E+00
  0.00000000E+00  0.00000000E+00  0.00000000E+00
  0.00000000E+00  0.00000000E+00  0.00000000E+00
  0.00000000E+00  0.00000000E+00  0.00000000E+00
  0.00000000E+00  0.00000000E+00  0.00000000E+00
  0.00000000E+00  0.00000000E+00  0.00000000E+00
  0.00000000E+00  0.00000000E+00  0.00000000E+00
  0.00000000E+00  0.00000000E+00  0.00000000E+00
  0.00000000E+00  0.00000000E+00  0.00000000E+00
  0.00000000E+00  0.00000000E+00  0.00000000E+00
  0.00000000E+00  0.00000000E+00  0.00000000E+00
  0.00000000E+00  0.00000000E+00  0.00000000E+00
  0.00000000E+00  0.00000000E+00  0.00000000E+00
  0.00000000E+00  0.00000000E+00  0.00000000E+00
