Al1 Ni2 Ta1 
1.0
4.2324036624083066e+00 0.0000000000000000e+00 0.0000000000000000e+00 
2.1161774823028834e+00 3.6653748735255007e+00 0.0000000000000000e+00 
2.1161870716016473e+00 1.2217884823456546e+00 3.4557476403778096e+00 
Al Ni Ta 
1 2 1 
Cartesian
   8.4643470926    4.8871010445    3.4557476404
   2.1161433813    1.2218091658    0.8639369101
   6.3485274895    3.6653908438    2.5918107303
   4.2322782981    2.4435743472    1.7278738202
