Converted from final.data
1.0
14.7164884110508432 0.0000000000000000 0.0000000000000000
0.0122979044054825 14.5928560511612257 0.0000000000000000
-0.2445065335348760 0.1793111030825052 37.9353423818390354
Al Cu Ni Zr Nb Ta
10 9 11 17 13 4
Direct
0.3499652849280449 0.0738122717450005 0.2084706668991389
0.4878178897746627 0.3590851565422252 0.4090800306846907
0.1643522349505405 0.0044322241568918 0.2370483866564072
0.3514850316266848 0.3249395459970885 0.2906840467481095
0.5912621712532182 0.2807360815669853 0.3112346330521975
0.1954070524389070 0.1085949537692337 0.3823336999789714
0.4344898140601279 0.9953089380847940 0.1038915591257234
0.8871429134176023 0.4557011682706330 0.2488905838674680
0.8079447017887856 0.1685455721774237 0.2734660638682381
-0.0094301945475319 0.3231267521422039 0.2376343117600513
0.0659410985180532 0.0279261130921151 0.0578819847409075
0.2884171920181706 0.2328575173046915 0.0563717544299832
0.4575924364954785 0.3535733689845324 0.3452944299047456
0.2274220713047706 0.9507976337603813 0.1827542865008818
0.0563744917035879 0.0953895029575208 0.0019150511708748
0.0096294806550087 0.2738637739069124 0.0062383253854154
0.1335156214750613 0.2070570866822496 0.0429616518222405
0.2204361308894799 0.1108942941756633 0.0953871794523593
0.8122221553476126 0.2008421536936732 0.0617862451407417
0.3596863315010885 0.4456107159575102 0.2453286328530199
0.4771439861030323 0.5759284766459699 0.1742867680824204
0.3058253160708943 0.0269885694433008 0.1407256285166081
0.4833931889532738 0.3171276612247670 0.1215806154056358
0.5953027062762394 0.4534840383306910 0.3000497123865931
0.4419492441354410 0.1809157596976322 0.2490659227538709
0.9085747930490128 0.5206098019738941 0.0438500811695954
0.2902496010830237 0.9917060087128226 0.0797920173235803
0.1854767512816103 0.3686250066649344 0.0388657221061201
0.3826168182156363 0.0982574451410573 0.0691477209446251
0.0559214645572815 0.1196815042462617 0.1198821348389165
0.1723413478740542 0.3763070134902941 0.2686963153071051
-0.0159450617088509 0.1757465847045525 0.1876389971558798
0.4673842026353620 0.2373806582678955 0.0618963440358360
0.0971422425373381 0.4143466967956808 0.9923237042869866
0.0211038029389238 0.4191789538409522 0.0546591284928633
0.2966288610872765 0.2701481330247897 0.2151670174420501
0.0882642268436929 0.4896555120141740 0.1395426775032055
0.2283057241025433 0.0530570500146574 0.0243586925501928
0.3474924078986820 0.1995821809118872 0.1327593569499528
0.8858226438936946 0.1421987105956994 -0.0034315583909278
0.1529663851024146 0.2858708071103351 0.1086768417510968
0.2772608749135803 0.4658710097414169 0.4572561194026621
0.4391069194262322 0.1613567894964036 0.3193436046466329
0.1805066956984216 0.1350885453212363 0.1724198391739085
0.1058875614678214 0.0751920758227368 0.3102131401331691
0.4225089642811811 0.4058366539268523 0.1793555697056739
0.5301875055436296 0.0134984221365834 0.2334545760553050
0.3646196277966451 0.2032158392108439 0.3941459094983549
0.5350609319693259 0.1967748875776736 0.4541058757250477
0.5093161260460206 0.3612101794143420 0.2526614318654758
0.3734798467220274 0.2428726724513501 0.9545715016722580
0.2889455546948631 0.0015347779177360 0.3305786220140672
0.1254527634143345 0.3921889842068117 0.3532234867158814
0.4602451850494113 0.0388980589209050 0.3748342851233699
0.4254730398851012 0.5736821303346902 0.4289515684931686
0.2291607926890688 0.2392485232589277 0.3341310442549135
0.0905359636334612 0.0216360042135724 0.4358021881801516
0.0389401913103146 0.1955952151136000 0.3811546563730030
0.3081071999125750 0.4131252800652210 0.3857883154343150
0.4235933860150916 0.3675620855374354 -0.0050662450718784
0.1175104731565910 0.1896083212389557 0.2436707118197116
0.2826242660892309 0.1370382093725647 0.2763872444449809
0.2421357673891220 0.1116453437384901 0.9711339277734782
0.1794116871897916 0.2821810765489365 0.4153408119534915
