POSCAR file written by OVITO Basic 3.9.4
1
7.2121885233 0.0 0.0
-0.2615112046 16.1084246975 0.0
-0.1900394512 -0.1172386407 7.2902625003
Al Nb W Ta Ni Cu 
4 21 21 5 1 11 
Cartesian
1.58883587 14.2541158955 0.0634445659
2.0593111439 15.9126258955 1.3257005885
3.6068726419 14.3064058955 1.7369853786
3.5556410679 14.1936958955 5.2897624807
3.23292 7.04906 7.2122
3.3319 7.1157 3.6087
6.9528463701 9.3277168955 -0.0808513212
-0.2316035109 12.1658258955 7.0508163216
6.8236251366 12.4804158955 3.430881053
3.5728665221 9.1595598955 3.7463927142
3.5088472722 12.9484258955 0.0496895275
3.1254798266 12.5373058955 3.2257793048
1.7772544392 14.2317158955 3.3482702171
5.1126846528 10.8422858955 3.4979016003
5.4982356067 14.1624958955 0.1583300509
1.394533959 15.5614358955 5.1560654341
1.4665796236 12.5750558955 1.4864889564
1.5227038736 12.7547758955 5.3610688828
5.2642059755 15.9717258955 1.844593758
4.9833421133 12.3009958955 5.4592208577
6.9805850124 10.4090658955 1.6932716247
0.3139905134 10.9202558955 5.2873443148
0.0448614919 14.5682258955 1.7320507475
6.6064469328 13.8625058955 5.4879144596
3.305568716 10.7889058955 1.646795657
6.9573 7.16809 0.00600557
6.83479 3.47001 7.20384
6.9275 3.52791 3.61299
3.4877 3.58627 0.00670495
3.39587 3.53752 3.60475
1.49817 5.26274 7.21283
5.22403 5.38714 0.00817123
1.56958 3.50469 5.40078
5.21238 3.56087 1.80536
-0.166543 1.71406 5.40202
3.46355 1.76809 1.80363
3.36493 1.69998 5.40286
3.40327 5.3495 1.80324
3.3994595724 15.6839958955 6.6749389841
1.9086086368 10.6833958955 0.0711826965
1.405229106 10.5654758955 3.2736019746
4.8479039466 10.7087458955 7.0615899385
5.4286564978 14.0949858955 3.4131773267
5.3243131064 9.0829835955 5.242608247
5.2214759314 12.5501158955 1.6034161212
3.0963158386 10.9929058955 5.1292100314
6.86496 7.10675 3.62101
1.65325 1.7319 3.60193
5.05618 7.07641 5.41105
5.11188 3.49903 5.39985
3.31198 5.29132 5.41136
6.8428218136 8.9992137955 3.8630446407
1.74674 1.80229 0.00205588
1.58356 5.32642 3.60939
5.28702 1.79232 0.00381988
5.17377 1.73081 3.61105
5.12309 5.31712 3.59796
1.60689 7.13955 1.80324
1.51758 7.08127 5.414
1.66599 3.54868 1.80728
-0.0747331 1.76839 1.80394
-0.135197 5.34558 1.80601
-0.227573 5.29559 5.41203
