Al4 Cu4 Ni2
1.0
   2.9584079999999999    0.0000000000000000    0.0000000000000000
   0.0000000000000000    2.9584079999999999    0.0000000000000000
   0.0000000000000000    0.0000000000000000   14.3119479999999992
Al Cu Ni
4 4 2
direct
   0.0000000000000000    0.0000000000000000    0.9963379999999999 Al
   0.0000000000000000    0.0000000000000000    0.1916200000000000 Al
   0.0000000000000000    0.0000000000000000    0.3999060000000000 Al
   0.0000000000000000    0.0000000000000000    0.6104000000000001 Al
   0.5000000000000000    0.5000000000000000    0.2970410000000000 Cu
   0.5000000000000000    0.5000000000000000    0.5032960000000000 Cu
   0.5000000000000000    0.5000000000000000    0.7063349999999990 Cu
   0.5000000000000000    0.5000000000000000    0.8968280000000000 Cu
   0.0000000000000000    0.0000000000000000    0.8008810000000000 Ni
   0.5000000000000000    0.5000000000000000    0.0973550000000000 Ni
