Ta1 Al1 Ni2
1.0
   3.6344719300000001   -0.0000000000000000    2.0983621800000001
   1.2114906400000001    3.4266120500000001    2.0983621800000001
  -0.0000000000000000   -0.0000000000000000    4.1967253700000002
Ta Al Ni
1 1 2
direct
   0.5000000000000000    0.5000000000000000    0.5000000000000000 Ta
  -0.0000000000000000    0.0000000000000000    0.0000000000000000 Al
   0.2500000000000000    0.2500000000000000    0.2500000000000000 Ni
   0.7500000000000000    0.7500000000000000    0.7500000000000000 Ni
