Al2 Zr4 
1.0
4.9092084720860818e+00 0.0000000000000000e+00 0.0000000000000000e+00 
-2.4546063560537146e+00 4.2515014063310872e+00 0.0000000000000000e+00 
0.0000000000000000e+00 0.0000000000000000e+00 5.8809584338996972e+00 
Al Zr 
2 4 
Cartesian
   0.0000010413    2.8343356881    1.4702396085
   2.4546108932    1.4171657183    4.4107188254
   0.0000023679    0.0000001558    5.8809584339
   0.0001129558    0.0000000053    2.9404792169
   0.0000059505    2.8343356881    4.4107188254
   2.4546108932    1.4171657183    1.4702396085
