Zr10 Al2 Ni8
1.0
   7.2402670000000002    0.0000000000000000    0.0000000000000000
   0.0000000000000000    7.2402670000000002    0.0000000000000000
   0.0000000000000000    0.0000000000000000    6.6125509999999998
Zr Al Ni
10 2 8
direct
   0.3204220000000000    0.8204220000000000    0.2500000000000000 Zr
   0.6795780000000000    0.1795780000000000    0.2500000000000000 Zr
   0.1795780000000000    0.3204220000000000    0.7500000000000000 Zr
   0.8204220000000000    0.6795780000000000    0.7500000000000000 Zr
   0.8387380000000000    0.6612620000000000    0.2500000000000000 Zr
   0.1612620000000000    0.3387380000000000    0.2500000000000000 Zr
   0.6612620000000000    0.1612620000000000    0.7500000000000000 Zr
   0.3387380000000000    0.8387380000000000    0.7500000000000000 Zr
   0.0000000000000000    0.0000000000000000    0.0000000000000000 Zr
   0.5000000000000000    0.5000000000000000    0.5000000000000000 Zr
   0.0000000000000000    0.0000000000000000    0.5000000000000000 Al
   0.5000000000000000    0.5000000000000000    0.0000000000000000 Al
   0.1248150000000000    0.6245500000000000    0.9760949999999990 Ni
   0.8751850000000000    0.3754500000000000    0.9760949999999990 Ni
   0.3751850000000000    0.1245500000000000    0.4760950000000000 Ni
   0.6248150000000000    0.8754500000000001    0.4760950000000000 Ni
   0.8754500000000001    0.3751850000000000    0.5239050000000000 Ni
   0.1245500000000000    0.6248150000000000    0.5239050000000000 Ni
   0.6245500000000000    0.8751850000000000    0.0239050000000000 Ni
   0.3754500000000000    0.1248150000000000    0.0239050000000000 Ni
