POSCAR file written by OVITO Basic 3.9.4
1
7.0400347 0.0 0.0
-0.0108574069 7.4929442421 0.0
-0.0744261776 0.1176738465 14.4537
Zr W Ta Ni Cu 
10 9 16 2 21 
Cartesian
6.92151 -0.0588403 3.50739
3.41731 3.60864 3.50326
1.7438 1.8431 0.00120267
1.67264 5.45487 3.50282
5.16128 5.45294 3.50846
1.64626 3.59221 5.25587
5.20881 3.65141 1.7591
-0.0946747 1.73936 5.26607
-0.032512 5.48507 1.75618
3.45974 5.47809 1.75051
6.7027029502 0.3133315875 10.318543
3.4889560668 0.0463556275 7.025518
3.8701660507 0.1054146405 10.150803
1.7466684244 5.8820623125 9.958243
4.8724509465 5.5975121096 10.557433
1.862494661 3.7496975345 8.537583
5.4329127035 0.3412149505 12.543153
0.1098793462 2.0392366114 8.590723
6.6689942641 5.606388388 9.001203
0.0019151 7.34807 5.96457e-04
3.43217 7.28374 3.5105
1.68088 1.78269 3.49983
5.23683 5.51608 0.00612767
1.72784 -0.029754 1.74679
1.64916 7.25715 5.27186
6.94536 1.80222 1.75294
6.88616 5.42163 5.26599
3.39257 5.41774 5.26624
0.3088413751 3.4904873394 10.380033
3.0934999728 3.7302403997 10.406213
5.4686957702 4.9785424021 7.124506
5.1168488934 0.3262614357 8.286733
5.3266206396 3.9751903442 11.954543
3.3887202463 2.1142172581 8.547693
3.3689936838 5.6522976639 12.367303
1.6024092103 1.6296181909 10.564813
1.6027981567 3.8927677592 12.066963
6.92081 3.61199 3.51481
3.48784 3.67653 3.4249e-04
1.74199 5.50249 0.00366424
5.1844 1.77853 3.52641
1.70328 3.64978 1.75509
5.20114 7.31261 1.74862
5.13184 7.25533 5.26018
5.14011 3.58128 5.25673
3.47041 1.80643 1.74971
3.39982 1.73426 5.26723
0.1424810311 0.1015763257 7.277911
1.8594529009 1.6458116824 7.01178
1.3234548738 5.2347384042 7.225694
5.0738653321 2.0647429195 10.527963
1.9100558219 0.1697011387 8.709363
1.1991316548 7.4341118084 12.513563
5.1265924988 3.5149646645 9.025353
0.1448944932 1.9073189003 12.339953
0.1473747743 5.7878324064 12.302283
3.4559880236 1.5074290473 11.950563
3.6341354375 5.2700044611 8.484333
