Al2 Cu6
1.0
   4.1725143999999998    0.0000000000000000    0.0000000000000000
   0.0000000000000000    4.5117153099999996    0.0000000000000000
   0.0000000000000000    0.0000000000000000    5.1070174599999998
Al Cu
2 6
direct
   0.0000000000000000    0.0053900000000000    0.0000000000000000 Al
   0.5000000000000000    0.3276100000000000    0.5000000000000000 Al
  -0.0000000000000000    0.0038250500000000    0.5000000000000000 Cu
   0.5000000000000000    0.3291749500000000    0.0000000000000000 Cu
   0.0000000000000000    0.5064353200000000    0.2509403100000000 Cu
   0.0000000000000000    0.5064353200000000    0.7490596900000001 Cu
   0.5000000000000000    0.8265646800000001    0.2490596900000000 Cu
   0.5000000000000000    0.8265646800000001    0.7509403100000001 Cu
