Zr14 Ni20
1.0
   4.5622616799999998   -6.1691347700000003    0.0000000000000000
   4.5622616799999998    6.1691347700000003    0.0000000000000000
   0.0000000000000000    0.0000000000000000    9.1134181400000003
Zr Ni
14 20
direct
   0.1914015600000000    0.8085984400000000   -0.0000000000000000 Zr
   0.6914015600000000    0.3085984400000000    0.5000000000000000 Zr
   0.3135274600000000    0.3135274600000000    0.6865334400000001 Zr
   0.6864725400000000    0.6864725400000000    0.3134665600000000 Zr
   0.8085984400000000    0.1914015600000000   -0.0000000000000000 Zr
   0.0009872900000000    0.5009872900000000    0.7500000000000000 Zr
   0.9990127100000000    0.4990127100000000    0.2500000000000000 Zr
   0.8135274600000000    0.8135274600000000    0.8134665600000001 Zr
   0.5000000000000000    0.5000000000000000   -0.0000000000000000 Zr
   0.4990127100000000    0.9990127100000000    0.2500000000000000 Zr
   0.3085984400000000    0.6914015600000000    0.5000000000000000 Zr
   0.5009872900000000    0.0009872900000000    0.7500000000000000 Zr
   0.1864725400000000    0.1864725400000000    0.1865334400000000 Zr
  -0.0000000000000000   -0.0000000000000000    0.5000000000000000 Zr
   0.8938604000000000    0.8938604000000000    0.1054974600000000 Ni
   0.6385057700000000    0.3474082400000000    0.2072040200000000 Ni
   0.0623042900000000    0.3529224100000000    0.4928111300000000 Ni
   0.6525917600000000    0.3614942300000000    0.7927959800000001 Ni
   0.8474082400000000    0.1385057700000000    0.2927959800000000 Ni
   0.1385057700000000    0.8474082400000000    0.2927959800000000 Ni
   0.6061396000000000    0.6061396000000000    0.6054974600000000 Ni
   0.4376957100000000    0.1470775900000000    0.9928111300000000 Ni
   0.3614942300000000    0.6525917600000000    0.7927959800000001 Ni
   0.1525917600000000    0.8614942300000000    0.7072040200000000 Ni
   0.1470775900000000    0.4376957100000000    0.9928111300000000 Ni
   0.5623042900000000    0.8529224100000000    0.0071888700000000 Ni
   0.9376957100000001    0.6470775900000000    0.5071888700000000 Ni
   0.6470775900000000    0.9376957100000001    0.5071888700000000 Ni
   0.1061396000000000    0.1061396000000000    0.8945025400000001 Ni
   0.3938604000000000    0.3938604000000000    0.3945025400000000 Ni
   0.8529224100000000    0.5623042900000000    0.0071888700000000 Ni
   0.3529224100000000    0.0623042900000000    0.4928111300000000 Ni
   0.8614942300000000    0.1525917600000000    0.7072040200000000 Ni
   0.3474082400000000    0.6385057700000000    0.2072040200000000 Ni
