Cu18 W6 
1.0
7.7148202319142083e+00 0.0000000000000000e+00 0.0000000000000000e+00 
-3.0443559321058819e-08 4.7046692785977307e+00 0.0000000000000000e+00 
1.1897672200384745e-06 -1.9938456960585786e-03 8.5979128430582907e+00 
Cu W 
18 6 
Cartesian
   0.0000000049    4.6908716283    0.0153512295
   1.2858062337    0.7974123026    2.1341309363
   2.5716041441    4.6908716283    0.0153512295
   3.8574101084    2.2974989108    0.0526840549
   5.1432163290    3.1907850219    2.0967902009
   6.4290142807    2.2974989108    0.0526841408
   0.0000003407    3.1907850219    2.0967902009
   1.2858059360    2.2974989108    0.0526840549
   2.5716044419    3.1907850219    2.0967902009
   3.8574104061    0.7974123026    2.1341309363
   5.1432160313    4.6908716283    0.0153513154
   6.4290145785    0.7974123026    2.1341309363
   7.7148207929    4.6938502513    4.2733002496
   2.5716047333    4.6938502513    4.2733002496
   5.1432166205    4.6938502513    4.2733002496
   1.2858068343    0.7924398349    6.4740908042
   3.8574110067    0.7924398349    6.4740908042
   6.4290151791    0.7924398349    6.4740908042
   1.2858065168    2.3401327251    4.2517796738
   3.8574106892    2.3401327251    4.2517796738
   6.4290148615    2.3401327251    4.2517796738
   0.0000011080    3.1461573610    6.4956113801
   2.5716050509    3.1461573610    6.4956113801
   5.1432169380    3.1461573610    6.4956113801
