fcc_Al8_Cu16_Nb4_Ni0_Ta0_W4_Zr0         
   1.00000000000000     
     8.8848154973241318    0.0000000000000000   -0.0000000000000000
     0.0000000000000000    5.7766361620329905   -0.0000000000000000
    -0.0000000000000000    0.0000000000000000    8.8848154973241318
   Al   Cu   Nb   W 
     8    16     4     4
Direct
  0.4830446919028140  0.0035571231884314  0.4830446919028140
  0.7669553080971860  0.2464428768115686  0.4830446919028140
  0.4830446919028140  0.2464428768115686  0.7669553080971860
  0.7669553080971860  0.0035571231884314  0.7669553080971860
 -0.0111843718458053  0.5082179737994628 -0.0111843718458053
  0.2611843718458055  0.7417820262005372 -0.0111843718458053
 -0.0111843718458053  0.7417820262005372  0.2611843718458055
  0.2611843718458055  0.5082179737994628  0.2611843718458054
  0.0083343616629154  0.4938818731107672  0.5122476379063651
  0.2416656383370847  0.7561181268892331  0.5122476379063651
  0.0083343616629154  0.7561181268892331  0.7377523620936348
  0.2416656383370847  0.4938818731107672  0.7377523620936348
  0.5026728019395719  0.0001090243035134  0.0103782869338512
  0.7473271980604282  0.2498909756964864  0.0103782869338512
  0.5026728019395719  0.2498909756964864  0.2396217130661488
  0.7473271980604282  0.0001090243035134  0.2396217130661488
  0.0103782869338512  0.0001090243035134  0.5026728019395719
  0.2396217130661488  0.2498909756964864  0.5026728019395719
  0.0103782869338512  0.2498909756964864  0.7473271980604282
  0.2396217130661488  0.0001090243035134  0.7473271980604282
  0.5122476379063651  0.4938818731107672  0.0083343616629154
  0.7377523620936348  0.7561181268892331  0.0083343616629154
  0.5122476379063651  0.7561181268892331  0.2416656383370847
  0.7377523620936348  0.4938818731107672  0.2416656383370847
  0.4954904293349752  0.5078121042384995  0.4954904293349752
  0.7545095706650252  0.7421878957615006  0.4954904293349752
  0.4954904293349752  0.7421878957615006  0.7545095706650252
  0.7545095706650252  0.5078121042384995  0.7545095706650252
  0.0009979122156387  0.0098451723850034  0.0009979122156387
  0.2490020877843613  0.2401548276149966  0.0009979122156388
  0.0009979122156388  0.2401548276149967  0.2490020877843613
  0.2490020877843613  0.0098451723850034  0.2490020877843613
 
  0.00000000E+00  0.00000000E+00  0.00000000E+00
  0.00000000E+00  0.00000000E+00  0.00000000E+00
  0.00000000E+00  0.00000000E+00  0.00000000E+00
  0.00000000E+00  0.00000000E+00  0.00000000E+00
  0.00000000E+00  0.00000000E+00  0.00000000E+00
  0.00000000E+00  0.00000000E+00  0.00000000E+00
  0.00000000E+00  0.00000000E+00  0.00000000E+00
  0.00000000E+00  0.00000000E+00  0.00000000E+00
  0.00000000E+00  0.00000000E+00  0.00000000E+00
  0.00000000E+00  0.00000000E+00  0.00000000E+00
  0.00000000E+00  0.00000000E+00  0.00000000E+00
  0.00000000E+00  0.00000000E+00  0.00000000E+00
  0.00000000E+00  0.00000000E+00  0.00000000E+00
  0.00000000E+00  0.00000000E+00  0.00000000E+00
  0.00000000E+00  0.00000000E+00  0.00000000E+00
  0.00000000E+00  0.00000000E+00  0.00000000E+00
  0.00000000E+00  0.00000000E+00  0.00000000E+00
  0.00000000E+00  0.00000000E+00  0.00000000E+00
  0.00000000E+00  0.00000000E+00  0.00000000E+00
  0.00000000E+00  0.00000000E+00  0.00000000E+00
  0.00000000E+00  0.00000000E+00  0.00000000E+00
  0.00000000E+00  0.00000000E+00  0.00000000E+00
  0.00000000E+00  0.00000000E+00  0.00000000E+00
  0.00000000E+00  0.00000000E+00  0.00000000E+00
  0.00000000E+00  0.00000000E+00  0.00000000E+00
  0.00000000E+00  0.00000000E+00  0.00000000E+00
  0.00000000E+00  0.00000000E+00  0.00000000E+00
  0.00000000E+00  0.00000000E+00  0.00000000E+00
  0.00000000E+00  0.00000000E+00  0.00000000E+00
  0.00000000E+00  0.00000000E+00  0.00000000E+00
  0.00000000E+00  0.00000000E+00  0.00000000E+00
  0.00000000E+00  0.00000000E+00  0.00000000E+00
