bcc_Al3_Cu6_Nb12_Ni0_Ta0_W3_Zr0         
   1.00000000000000     
    10.7258074162602401    0.0000000000000000    0.0000000000000000
     0.0000000000000000    5.9755146989153793    0.0688833339408515
     0.0000000000000000    0.0672434847759546    6.0230575042901453
   Al   Cu   Nb   W 
     3     6    12     3
Direct
  0.1666666666666643  0.2413509547206325  0.7636778005822230
  0.5000000000000000  0.2413509547206325  0.7636778005822230
  0.8333333333333357  0.2413509547206325  0.7636778005822230
 -0.0000000000000000 -0.0015142684457725  0.0024443939012150
  0.3333333333333357 -0.0015142684457725  0.0024443939012150
  0.6666666666666643 -0.0015142684457725  0.0024443939012150
  0.1666666666666643  0.7593532860912039  0.2341985873523651
  0.5000000000000000  0.7593532860912039  0.2341985873523651
  0.8333333333333357  0.7593532860912039  0.2341985873523651
  0.1666666666666643  0.2529727629974862  0.2461284589637266
  0.5000000000000000  0.2529727629974862  0.2461284589637266
  0.8333333333333357  0.2529727629974862  0.2461284589637266
 -0.0000000000000000 -0.0035338643398158  0.4950571267821752
  0.3333333333333357 -0.0035338643398158  0.4950571267821752
  0.6666666666666643 -0.0035338643398157  0.4950571267821753
 -0.0000000000000000  0.5048956295039988  0.4972355351637149
  0.3333333333333357  0.5048956295039988  0.4972355351637149
  0.6666666666666643  0.5048956295039988  0.4972355351637149
  0.1666666666666643  0.7467738268033356  0.7601620775982683
  0.5000000000000000  0.7467738268033356  0.7601620775982683
  0.8333333333333357  0.7467738268033356  0.7601620775982683
 -0.0000000000000000  0.4997016726689310  0.0010960196563116
  0.3333333333333357  0.4997016726689310  0.0010960196563116
  0.6666666666666643  0.4997016726689310  0.0010960196563116
 
  0.00000000E+00  0.00000000E+00  0.00000000E+00
  0.00000000E+00  0.00000000E+00  0.00000000E+00
  0.00000000E+00  0.00000000E+00  0.00000000E+00
  0.00000000E+00  0.00000000E+00  0.00000000E+00
  0.00000000E+00  0.00000000E+00  0.00000000E+00
  0.00000000E+00  0.00000000E+00  0.00000000E+00
  0.00000000E+00  0.00000000E+00  0.00000000E+00
  0.00000000E+00  0.00000000E+00  0.00000000E+00
  0.00000000E+00  0.00000000E+00  0.00000000E+00
  0.00000000E+00  0.00000000E+00  0.00000000E+00
  0.00000000E+00  0.00000000E+00  0.00000000E+00
  0.00000000E+00  0.00000000E+00  0.00000000E+00
  0.00000000E+00  0.00000000E+00  0.00000000E+00
  0.00000000E+00  0.00000000E+00  0.00000000E+00
  0.00000000E+00  0.00000000E+00  0.00000000E+00
  0.00000000E+00  0.00000000E+00  0.00000000E+00
  0.00000000E+00  0.00000000E+00  0.00000000E+00
  0.00000000E+00  0.00000000E+00  0.00000000E+00
  0.00000000E+00  0.00000000E+00  0.00000000E+00
  0.00000000E+00  0.00000000E+00  0.00000000E+00
  0.00000000E+00  0.00000000E+00  0.00000000E+00
  0.00000000E+00  0.00000000E+00  0.00000000E+00
  0.00000000E+00  0.00000000E+00  0.00000000E+00
  0.00000000E+00  0.00000000E+00  0.00000000E+00
