Al2 Cu6 
1.0
4.2276464103696068e+00 0.0000000000000000e+00 0.0000000000000000e+00 
-6.3948994729109509e-07 4.5169498948261877e+00 0.0000000000000000e+00 
-2.0238417568780390e-07 -1.5864013668259844e-06 5.2069593277668300e+00 
Al Cu 
2 6 
Cartesian
  -0.0000006122    4.5126723433    0.0000002471
   2.1138228904    1.5084255903    2.6034796639
   0.0000004857    0.0023457081    2.6034796639
   2.1138229926    1.5018000180    0.0000002323
  -0.0000003648    2.2644730591    1.3055044635
  -0.0000000129    2.2644722682    3.9014548642
   2.1138226229    3.7566203575    1.2979752003
   2.1138225214    3.7566195620    3.9089789205
