fcc_Al0_Cu12_Nb0_Ni0_Ta0_W16_Zr4        
   1.00000000000000     
     7.8559819077492659    0.0000000000000000   -0.0000000000000000
     0.0000000000000000    7.8559819077492659    0.0000000000000000
    -0.0000000000000000   -0.0000000000000000    8.0147574532979373
   Cu   W    Zr
    12    16     4
Direct
  0.0074587700530193  0.5133477861393823  0.5097748609622745
  0.2425412299469807  0.7366522138606177  0.5097748609622745
  0.0074587700530193  0.7366522138606177  0.7402251390377255
  0.2425412299469807  0.5133477861393823  0.7402251390377255
  0.5133477861393823  0.0074587700530193  0.5097748609622745
  0.7366522138606177  0.2425412299469807  0.5097748609622745
  0.5133477861393823  0.2425412299469807  0.7402251390377255
  0.7366522138606177  0.0074587700530193  0.7402251390377255
  0.4985455911919234  0.4985455911919234  0.5255517792121538
  0.7514544088080767  0.7514544088080767  0.5255517792121538
  0.4985455911919234  0.7514544088080767  0.7244482207878462
  0.7514544088080767  0.4985455911919234  0.7244482207878462
  0.0074062448766032  0.0074062448766032 -0.0250690802375906
  0.2425937551233968  0.2425937551233968 -0.0250690802375906
  0.0074062448766032  0.2425937551233968  0.2750690802375906
  0.2425937551233968  0.0074062448766032  0.2750690802375907
 -0.0097443528375106 -0.0097443528375106  0.5294922517112671
  0.2597443528375107  0.2597443528375107  0.5294922517112671
 -0.0097443528375106  0.2597443528375107  0.7205077482887329
  0.2597443528375107 -0.0097443528375106  0.7205077482887329
  0.0081910840956850  0.4893768976081643 -0.0146120644877503
  0.2418089159043150  0.7606231023918358 -0.0146120644877503
  0.0081910840956850  0.7606231023918358  0.2646120644877505
  0.2418089159043150  0.4893768976081643  0.2646120644877505
  0.4893768976081643  0.0081910840956850 -0.0146120644877503
  0.7606231023918358  0.2418089159043150 -0.0146120644877503
  0.4893768976081643  0.2418089159043150  0.2646120644877505
  0.7606231023918358  0.0081910840956850  0.2646120644877505
  0.4936550390297080  0.4936550390297080 -0.0260222965128332
  0.7563449609702919  0.7563449609702919 -0.0260222965128332
  0.4936550390297080  0.7563449609702919  0.2760222965128331
  0.7563449609702919  0.4936550390297080  0.2760222965128331
 
  0.00000000E+00  0.00000000E+00  0.00000000E+00
  0.00000000E+00  0.00000000E+00  0.00000000E+00
  0.00000000E+00  0.00000000E+00  0.00000000E+00
  0.00000000E+00  0.00000000E+00  0.00000000E+00
  0.00000000E+00  0.00000000E+00  0.00000000E+00
  0.00000000E+00  0.00000000E+00  0.00000000E+00
  0.00000000E+00  0.00000000E+00  0.00000000E+00
  0.00000000E+00  0.00000000E+00  0.00000000E+00
  0.00000000E+00  0.00000000E+00  0.00000000E+00
  0.00000000E+00  0.00000000E+00  0.00000000E+00
  0.00000000E+00  0.00000000E+00  0.00000000E+00
  0.00000000E+00  0.00000000E+00  0.00000000E+00
  0.00000000E+00  0.00000000E+00  0.00000000E+00
  0.00000000E+00  0.00000000E+00  0.00000000E+00
  0.00000000E+00  0.00000000E+00  0.00000000E+00
  0.00000000E+00  0.00000000E+00  0.00000000E+00
  0.00000000E+00  0.00000000E+00  0.00000000E+00
  0.00000000E+00  0.00000000E+00  0.00000000E+00
  0.00000000E+00  0.00000000E+00  0.00000000E+00
  0.00000000E+00  0.00000000E+00  0.00000000E+00
  0.00000000E+00  0.00000000E+00  0.00000000E+00
  0.00000000E+00  0.00000000E+00  0.00000000E+00
  0.00000000E+00  0.00000000E+00  0.00000000E+00
  0.00000000E+00  0.00000000E+00  0.00000000E+00
  0.00000000E+00  0.00000000E+00  0.00000000E+00
  0.00000000E+00  0.00000000E+00  0.00000000E+00
  0.00000000E+00  0.00000000E+00  0.00000000E+00
  0.00000000E+00  0.00000000E+00  0.00000000E+00
  0.00000000E+00  0.00000000E+00  0.00000000E+00
  0.00000000E+00  0.00000000E+00  0.00000000E+00
  0.00000000E+00  0.00000000E+00  0.00000000E+00
  0.00000000E+00  0.00000000E+00  0.00000000E+00
