Ni3 Cu1 
1.0
2.4454866294692441e+00 0.0000000000000000e+00 0.0000000000000000e+00 
-1.0648612113255465e+00 2.2013234792754539e+00 0.0000000000000000e+00 
5.3075254712597763e-09 4.8893454944675109e-09 8.3278983499425419e+00 
Ni Cu 
3 1 
Cartesian
   0.6903503770    1.1006243184    2.1154777225
   0.6903503796    1.1006243208    6.2124206274
   2.4452474869    0.0001354391    4.1639491750
  -1.0647793513    2.2012618422    0.0000000117
