Ni1 Nb3 
1.0
4.5492395930401406e+00 0.0000000000000000e+00 0.0000000000000000e+00 
2.2746197965306663e+00 3.9397570554685708e+00 0.0000000000000000e+00 
2.2746197965234027e+00 1.3132523518196726e+00 3.7144385735361913e+00 
Ni Nb 
1 3 
Cartesian
   6.8238593896    3.9397570555    0.0000000000
   4.5492395930    2.6265047036    1.8572192868
   6.8238593896    3.9397570555    2.7858289302
   2.2746197965    1.3132523518    0.9286096434
