Al12 Ni4                                
   1.00000000000000     
     4.8170639402482243    0.0000003244130099    0.0000000000000000
     0.0000013082452260    6.6168705692380385    0.0000000000000000
     0.0000000000000000    0.0000000000000000    7.3922658208905947
   Al   Ni
    12     4
Direct
  0.9155900013818912  0.0077188090724003  0.2500000000000000
  0.3644289179657431  0.1716205538117105  0.4448869684844136
  0.3644289179657431  0.1716205538117105  0.0551130315155864
  0.8644292080224616  0.3283785939311274  0.5551132160088571
  0.1355707919775384  0.6716214060688724  0.4448867839911431
  0.6355710820342568  0.8283794461882894  0.9448869684844137
  0.1355707919775384  0.6716214060688724  0.0551132160088569
  0.6355710820342568  0.8283794461882894  0.5551130315155863
  0.8644292080224616  0.3283785939311274  0.9448867839911429
  0.5844093637524140  0.5077195997543054  0.2500000000000000
  0.0844099986181089  0.9922811909275997  0.7500000000000000
  0.4155906362475860  0.4922804002456946  0.7500000000000000
  0.4423193515942514  0.8705881367054077  0.2500000000000000
  0.0576793850934731  0.3705879113574680  0.2500000000000000
  0.5576806484057486  0.1294118632945923  0.7500000000000000
  0.9423206149065270  0.6294120886425322  0.7500000000000000
 
  0.00000000E+00  0.00000000E+00  0.00000000E+00
  0.00000000E+00  0.00000000E+00  0.00000000E+00
  0.00000000E+00  0.00000000E+00  0.00000000E+00
  0.00000000E+00  0.00000000E+00  0.00000000E+00
  0.00000000E+00  0.00000000E+00  0.00000000E+00
  0.00000000E+00  0.00000000E+00  0.00000000E+00
  0.00000000E+00  0.00000000E+00  0.00000000E+00
  0.00000000E+00  0.00000000E+00  0.00000000E+00
  0.00000000E+00  0.00000000E+00  0.00000000E+00
  0.00000000E+00  0.00000000E+00  0.00000000E+00
  0.00000000E+00  0.00000000E+00  0.00000000E+00
  0.00000000E+00  0.00000000E+00  0.00000000E+00
  0.00000000E+00  0.00000000E+00  0.00000000E+00
  0.00000000E+00  0.00000000E+00  0.00000000E+00
  0.00000000E+00  0.00000000E+00  0.00000000E+00
  0.00000000E+00  0.00000000E+00  0.00000000E+00
