Converted from final.data
1.0
14.4742778680985076 0.0000000000000000 0.0000000000000000
-0.2417892021328560 13.8542409338179802 0.0000000000000000
0.0817301091238442 -0.1954934524148949 31.9014316035965066
Al Cu W Zr Nb Ta
1 3 14 5 18 6
Direct
0.7570585726262646 0.5626345424497167 0.4725013165263659
0.1682214036454955 0.2691519766972236 0.1724091867684214
0.2058570683611048 0.1085970254374983 0.1449979245072721
0.9395146598196263 0.3193977857210144 0.0623870832507574
0.1360188972665819 0.0658301004558036 0.3681479136481112
0.8030004447881826 0.9193081502858628 0.1359075641551842
0.8979580173324653 0.4119013991535352 0.4765163121151895
-0.0255686965485203 0.4729835092276305 0.4075155991152577
0.7589057986005553 0.3600301054450920 0.1790364260801789
0.9168379810189741 0.3457316537984600 0.2257675561297672
0.2141969908960724 0.9191481626669645 0.2377589167582171
0.3865429163570972 0.0148007868806561 0.5749635874735687
0.7075644349698080 0.4089294079893850 0.2537550142706569
-0.0265612681449368 0.2800415932640532 0.4581472504704920
0.5740669668124773 -0.0168270935511055 0.0311242339529135
0.1229214689777709 0.4819026922644329 0.1839597604832214
0.4141073824607538 0.4264554461726527 0.3189182296517211
0.0021211639802290 0.2897021226958753 0.5347210433111830
0.9202186313295564 0.2523072941632662 0.1329912281854589
0.0818388186354220 0.6567722955709550 0.5273379335317185
0.1567830499309875 0.3811634650108900 0.4256377031525151
0.0453291269459237 0.3718418543057770 0.0044519129242141
0.7898983093512104 0.1935077622697434 0.2494750772264915
0.8377414717436567 0.1609692112003951 0.0630657518586727
0.4529615679979674 0.2064950109123468 0.2606643607132366
0.8592526464263015 0.9952017256486884 0.4785628800271449
0.6890116278256360 0.2524188113473046 0.0794839735618700
0.2526105697700207 0.0318455447386119 0.0727001356111083
0.0458490179254572 0.7113224054692771 0.2804122143209083
0.2919463901890226 0.1608403326698814 0.3097155966935990
0.1176772757917807 0.1572098261097513 0.4563622133733103
0.1737472902032384 0.3073267802134863 0.5229202286939401
0.2353473442873933 0.7659962560466708 0.4242386515822832
0.4290869020640864 0.2609274006911870 0.3549406669042415
0.0191326847610376 0.9655179163340880 0.4618193530234424
0.2491945739541335 0.3977293606050342 0.1112678322063195
0.4209644766865078 0.4953224255057153 0.0486393694541068
0.7043649770563981 0.3445743250112167 0.9846714669317898
0.4705084888172425 0.4265846782083264 0.2326537975465860
0.4511971949744279 0.7829198348240021 0.1532813398377413
0.7163853550755729 0.9088488415573645 0.0010935836169678
-0.0230422060262809 0.9434969436180728 0.1475837464158004
-0.0051610983304505 0.7110686338160658 0.7506755663873909
0.0531353890565302 0.3561096723810207 0.1154445547511037
0.0439991678956936 0.5871667467135573 0.6619208632692285
0.6213295564118830 0.7613691655180679 0.3160769753096923
0.5493325487909766 0.3274499263723775 0.6105999018639686
