Al6 Ta10 
1.0
7.7578237944423805e+00 0.0000000000000000e+00 0.0000000000000000e+00 
-3.8789563484150662e+00 6.7183640629762742e+00 0.0000000000000000e+00 
-7.8037480314292659e-16 7.1161221617073588e-16 5.2207018036222026e+00 
Al Ta 
6 10 
Cartesian
   1.5823257915    2.7406692808    1.3051754509
  -1.5823636645    2.7406625624    3.9155263527
  -0.7136284783    6.7183573446    3.9155263527
   4.5924961237    0.0000063730    1.3051754509
   5.4612333830    3.9777015006    1.3051754509
   2.2965416545    3.9776947822    3.9155263527
  -0.0000218765    4.4789317699    2.6103509018
  -0.0000218765    4.4789317699    5.2207018036
   1.7099855936    0.0000029184    1.3051754509
   0.8548752325    1.4807610313    3.9155263527
   4.7337739100    5.2375694399    3.9155263527
  -0.8549094460    1.4807946231    1.3051754509
   3.8788893225    2.2394322931    2.6103509018
   3.8788893225    2.2394322931    0.0000000005
   3.0239922135    5.2376030317    1.3051754509
   2.1688801674    6.7183640630    3.9155263527
