fcc_Al0_Cu20_Nb0_Ni0_Ta4_W4_Zr4         
   1.00000000000000     
     7.9715372914795877    0.0000000000000000    0.0000000000000000
     0.0000000000000000    7.7511229682558245    0.0000000000000000
     0.0000000000000000    0.0000000000000000    7.7038880681877089
   Cu   Ta   W    Zr
    20     4     4     4
Direct
 -0.0062758856829615 -0.0175671777180880  0.0274062261622637
  0.2562758856829616  0.2675671777180879  0.0274062261622637
 -0.0062758856829615  0.2675671777180879  0.2225937738377363
  0.2562758856829616 -0.0175671777180880  0.2225937738377363
  0.4935284721839281  0.4978553362362148  0.0315674365934528
  0.7564715278160721  0.7521446637637853  0.0315674365934528
  0.4935284721839281  0.7521446637637853  0.2184325634065471
  0.7564715278160721  0.4978553362362148  0.2184325634065471
  0.0054572154205854  0.5202914140622865  0.0044404569415191
  0.2445427845794146  0.7297085859377135  0.0044404569415191
  0.0054572154205854  0.7297085859377135  0.2455595430584810
  0.2445427845794146  0.5202914140622865  0.2455595430584810
  0.5062231406056967  0.0037654730951927  0.0161456845753024
  0.7437768593943033  0.2462345269048073  0.0161456845753024
  0.5062231406056967  0.2462345269048073  0.2338543154246976
  0.7437768593943033  0.0037654730951927  0.2338543154246976
  0.0069551650703548  0.5056265087181571  0.4958743012518480
  0.2430448349296453  0.7443734912818429  0.4958743012518480
  0.0069551650703548  0.7443734912818429  0.7541256987481522
  0.2430448349296453  0.5056265087181571  0.7541256987481522
  0.5115305613898723 -0.0279308058991574  0.4836052909194059
  0.7384694386101275  0.2779308058991574  0.4836052909194059
  0.5115305613898723  0.2779308058991574  0.7663947090805939
  0.7384694386101275 -0.0279308058991574  0.7663947090805939
  0.5013898554106018  0.5252489858649617  0.4772669981080791
  0.7486101445893982  0.7247510141350383  0.4772669981080791
  0.5013898554106018  0.7247510141350383  0.7727330018919210
  0.7486101445893982  0.5252489858649617  0.7727330018919210
 -0.0104256202107835 -0.0055475577787786  0.4737020632196107
  0.2604256202107835  0.2555475577787787  0.4737020632196107
 -0.0104256202107835  0.2555475577787787  0.7762979367803894
  0.2604256202107835 -0.0055475577787786  0.7762979367803894
 
  0.00000000E+00  0.00000000E+00  0.00000000E+00
  0.00000000E+00  0.00000000E+00  0.00000000E+00
  0.00000000E+00  0.00000000E+00  0.00000000E+00
  0.00000000E+00  0.00000000E+00  0.00000000E+00
  0.00000000E+00  0.00000000E+00  0.00000000E+00
  0.00000000E+00  0.00000000E+00  0.00000000E+00
  0.00000000E+00  0.00000000E+00  0.00000000E+00
  0.00000000E+00  0.00000000E+00  0.00000000E+00
  0.00000000E+00  0.00000000E+00  0.00000000E+00
  0.00000000E+00  0.00000000E+00  0.00000000E+00
  0.00000000E+00  0.00000000E+00  0.00000000E+00
  0.00000000E+00  0.00000000E+00  0.00000000E+00
  0.00000000E+00  0.00000000E+00  0.00000000E+00
  0.00000000E+00  0.00000000E+00  0.00000000E+00
  0.00000000E+00  0.00000000E+00  0.00000000E+00
  0.00000000E+00  0.00000000E+00  0.00000000E+00
  0.00000000E+00  0.00000000E+00  0.00000000E+00
  0.00000000E+00  0.00000000E+00  0.00000000E+00
  0.00000000E+00  0.00000000E+00  0.00000000E+00
  0.00000000E+00  0.00000000E+00  0.00000000E+00
  0.00000000E+00  0.00000000E+00  0.00000000E+00
  0.00000000E+00  0.00000000E+00  0.00000000E+00
  0.00000000E+00  0.00000000E+00  0.00000000E+00
  0.00000000E+00  0.00000000E+00  0.00000000E+00
  0.00000000E+00  0.00000000E+00  0.00000000E+00
  0.00000000E+00  0.00000000E+00  0.00000000E+00
  0.00000000E+00  0.00000000E+00  0.00000000E+00
  0.00000000E+00  0.00000000E+00  0.00000000E+00
  0.00000000E+00  0.00000000E+00  0.00000000E+00
  0.00000000E+00  0.00000000E+00  0.00000000E+00
  0.00000000E+00  0.00000000E+00  0.00000000E+00
  0.00000000E+00  0.00000000E+00  0.00000000E+00
