Zr2 Ni6
1.0
   5.2646314900000002    0.0000000000000000   -0.0000000000000000
  -2.6323152400000001    4.5593037499999998   -0.0000000000000000
   0.0000000000000000   -0.0000000000000000    4.2689730800000003
Zr Ni
2 6
direct
   0.6666670000000000    0.3333330000000000    0.7500000000000000 Zr
   0.3333330000000000    0.6666670000000000    0.2500000000000000 Zr
   0.1558677200000000    0.3117374500000000    0.7500000000000000 Ni
   0.8441322800000001    0.1558677200000000    0.2500000000000000 Ni
   0.8441322800000001    0.6882625500000000    0.2500000000000000 Ni
   0.1558677200000000    0.8441322800000001    0.7500000000000000 Ni
   0.6882625500000000    0.8441322800000001    0.7500000000000000 Ni
   0.3117374500000000    0.1558677200000000    0.2500000000000000 Ni
