Ni3 Zr12 Nb3 Ta6 
1.0
1.0314302189587375e+01 0.0000000000000000e+00 0.0000000000000000e+00 
1.3588963887456673e-04 6.6036174108560255e+00 0.0000000000000000e+00 
-2.6546931175111727e-04 7.8898129095529762e-02 6.8515884970524974e+00 
Ni Zr Nb Ta 
3 12 3 6 
Cartesian
   0.0000663396    3.3228888356    0.0563196464
   3.4381634749    3.3228888356    0.0563196464
   6.8762710809    3.3228888364    0.0563197149
   1.7190292172    1.7716156150    1.5658825899
   3.4381010720    6.5820614399    3.3775522139
   1.7189482156    4.8884535045    5.2890837403
   5.1570455073    4.8884535045    5.2890837403
   1.7188866957    1.8074290101    5.2408142993
   5.1571265090    1.7716156150    1.5658825899
   0.0000039057    6.5820614399    3.3775522139
   5.1569839875    1.8074290101    5.2408142993
   8.5952238008    1.7716156150    1.5658825899
   6.8762086780    6.5820614399    3.3775522139
   8.5951427991    4.8884535045    5.2890837403
   8.5950812793    1.8074290101    5.2408142993
   0.0001305421    6.5394505700    0.1038413049
   3.4382278130    6.5394505700    0.1038413049
   6.8763354191    6.5394505621    0.1038406198
   3.4380384333    3.4529878269    3.3326194966
   1.7190924975    4.8898814119    1.5886504185
  10.3142433311    3.4529878269    3.3326194966
   5.1571897893    4.8898814119    1.5886504185
   6.8761460394    3.4529878269    3.3326194966
   8.5952870811    4.8898814119    1.5886504185
