Ta1 Al2 Ni9                             
   1.00000000000000     
     3.5757116099999999    0.0000000000000000    0.0000000000000000
     0.0000000000000000    3.5757116099999999    0.0000000000000000
     0.0000000000000000    0.0000000000000000   10.5717169900000005
   Ta   Al   Ni
     1     2     9
Direct
  0.0000000000000000  0.0000000000000000  0.0000000000000000
  0.0000000000000000  0.0000000000000000  0.3392208400000030
  0.0000000000000000  0.0000000000000000  0.6607791599999970
  0.5000000000000000  0.5000000000000000  0.0000000000000000
  0.5000000000000000  0.5000000000000000  0.3366412100000034
  0.5000000000000000  0.5000000000000000  0.6633587899999966
  0.5000000000000000  0.0000000000000000  0.1717993800000031
  0.5000000000000000  0.0000000000000000  0.5000000000000000
  0.5000000000000000  0.0000000000000000  0.8282006199999969
  0.0000000000000000  0.5000000000000000  0.1717993800000031
  0.0000000000000000  0.5000000000000000  0.5000000000000000
  0.0000000000000000  0.5000000000000000  0.8282006199999969
 
  0.00000000E+00  0.00000000E+00  0.00000000E+00
  0.00000000E+00  0.00000000E+00  0.00000000E+00
  0.00000000E+00  0.00000000E+00  0.00000000E+00
  0.00000000E+00  0.00000000E+00  0.00000000E+00
  0.00000000E+00  0.00000000E+00  0.00000000E+00
  0.00000000E+00  0.00000000E+00  0.00000000E+00
  0.00000000E+00  0.00000000E+00  0.00000000E+00
  0.00000000E+00  0.00000000E+00  0.00000000E+00
  0.00000000E+00  0.00000000E+00  0.00000000E+00
  0.00000000E+00  0.00000000E+00  0.00000000E+00
  0.00000000E+00  0.00000000E+00  0.00000000E+00
  0.00000000E+00  0.00000000E+00  0.00000000E+00
