Al1 Ni3 
1.0
3.5614780660557597e+00 0.0000000000000000e+00 0.0000000000000000e+00 
0.0000000000000000e+00 3.5616607329357675e+00 0.0000000000000000e+00 
0.0000000000000000e+00 0.0000000000000000e+00 3.5616597219950408e+00 
Al Ni 
1 3 
Cartesian
   3.5614780661    0.0000000001    0.0000000003
   0.0000000001    1.7808303665    1.7808298610
   1.7807390330    0.0000000003    1.7808298610
   1.7807390330    1.7808303665    0.0000000003
