Ni6 Nb2 
1.0
4.4085491457102810e+00 0.0000000000000000e+00 0.0000000000000000e+00 
6.3224229836968874e-19 4.1926130044538663e+00 0.0000000000000000e+00 
-6.5403232851652705e-17 9.1447818754882541e-17 5.3341663073047965e+00 
Ni Nb 
6 2 
Cartesian
   1.1021372864    1.4185915731    1.3335415768
   3.3064118593    2.7740214313    4.0006247305
   3.3064118593    0.6620387491    2.6328698110
   1.1021372864    3.5305742554    2.7012964963
   1.1021372864    3.5305742554    5.2999529646
   3.3064118593    0.6620387491    0.0342129693
   1.1021372864    1.3350369886    4.0006247305
   3.3064118593    2.8575760159    1.3335415768
