Al3 Ni1 Zr2 
1.0
5.1034273099274046e+00 0.0000000000000000e+00 0.0000000000000000e+00 
2.3310121433175430e+00 4.5398993644593659e+00 0.0000000000000000e+00 
2.3309188110308963e+00 1.4234721299107100e+00 4.3109488587613702e+00 
Al Ni Zr 
3 1 2 
Cartesian
   3.4965083215    5.2516195778    2.1555089170
   7.2132251221    5.9633615301    4.3109186821
   8.5988755484    3.6934081924    4.3109488588
   2.3310405756    4.5398047054    0.0000295538
   3.6663604785    2.2389151638    1.6185155724
   6.0990144210    3.7244540226    2.6923987988
