Zr1 Al1 Cu2
1.0
   3.0550350000000002    0.0000000000000000    0.0000000000000000
   0.0000000000000000    3.0550350000000002    0.0000000000000000
   0.0000000000000000    0.0000000000000000    6.5733569999999997
Zr Al Cu
1 1 2
direct
   0.5000000000000000    0.5000000000000000    0.7500000000000000 Zr
   0.5000000000000000    0.5000000000000000    0.2500000000000000 Al
   0.0000000000000000    0.0000000000000000    0.0385810000000000 Cu
   0.0000000000000000    0.0000000000000000    0.4614189999999990 Cu
