Al10 Ta20 
1.0
5.2788420842141335e+00 0.0000000000000000e+00 0.0000000000000000e+00 
-1.3758806107966875e-15 9.9714258452662037e+00 0.0000000000000000e+00 
1.8750321485988943e-15 -3.5416944518331909e-14 9.9714258452770235e+00 
Al Ta 
10 20 
Cartesian
   2.6394210421    4.9857129226    4.9857129226
   2.6394210421    4.3467140402    2.3505542431
   2.6394210421    2.3505542431    4.3467140402
   5.2788420842    9.3324269628    2.6351586796
   5.2788420842    7.3362671657    0.6389948939
   5.2788420842    0.6389948939    7.3362671657
   5.2788420842    2.6351586796    9.3324269628
   5.2788420842    9.9714258453    9.9714258453
   2.6394210421    5.6247118051    7.6208716022
   2.6394210421    7.6208716022    5.6247118051
   5.2788420842    3.9875133670    3.9875133670
   5.2788420842    1.3213036673    4.6240493072
   5.2788420842    4.6240493072    1.3213036673
   3.9578171315    1.8216698162    1.8216698162
   1.3210249527    1.8216698162    1.8216698162
   2.6394210421    8.9732262896    0.9981995557
   2.6394210421    6.3070165900    0.3616616211
   2.6394210421    9.6097622299    3.6644092553
   1.3183960894    6.8073827389    3.1640431064
   3.9604459948    6.8073827389    3.1640431064
   2.6394210421    0.9981995557    8.9732262896
   2.6394210421    3.6644092553    9.6097622299
   2.6394210421    0.3616616211    6.3070165900
   1.3183960894    3.1640431064    6.8073827389
   3.9604459948    3.1640431064    6.8073827389
   5.2788420842    5.9839124783    5.9839124783
   5.2788420842    8.6501221779    5.3473765380
   5.2788420842    5.3473765380    8.6501221779
   3.9578171315    8.1497560290    8.1497560290
   1.3210249527    8.1497560290    8.1497560290
