Al16 Ni7 Zr6 
1.0
8.5776175545150046e+00 0.0000000000000000e+00 0.0000000000000000e+00 
4.2888087772574988e+00 7.4284347062131904e+00 0.0000000000000000e+00 
4.2888087772574872e+00 2.4761449020710571e+00 7.0035954057628214e+00 
Al Ni Zr 
16 7 6 
Cartesian
   2.0319689777    1.1731627886    0.8295408578
   2.8642460053    3.2986187166    2.3324704103
   4.2888087773    2.4761449021    4.5149518215
   6.5456528656    1.1731603124    0.8295548650
   5.7133795007    3.2986261450    2.3324914211
   4.2888332020    2.4761639560    0.0061540243
   4.2888153306    0.8311987191    2.3324634067
  12.8664306206    4.8224680031    6.1740475443
   4.2888087773    5.0821388428    0.8295408578
  10.6095779546    8.7314316766    6.1740545479
  11.4418556083    6.6059633678    4.6711319990
  12.8664349094    9.0733971921    4.6711039846
  12.8664520646    7.4284545154    6.9974252382
  14.2910099217    6.6059559394    4.6711109882
  12.8664263318    7.4284396585    2.4886365807
  15.1232789977    8.7314292004    6.1740475443
   2.1449694870    1.2380866494    3.5018187137
   6.4337057965    3.7144968212    0.0000130561
   6.4332216873    1.2380872106    3.5018187137
   8.5777296520    2.4762350625    7.0035743950
   6.4332409532    6.1903523506    7.0035884022
   4.2888182560    4.9522997087    3.5017836957
  12.8663923276    7.4283804078    0.0000145073
   6.9717974833    4.0251642015    4.8129618096
   8.5776261321    3.0980435511    2.1906265926
  10.1834676474    4.0251617253    4.8129548060
   6.9717974833    5.8794154068    2.1906335962
  10.1834719362    5.8794203591    2.1906476034
   8.5776218433    6.8065583425    4.8129478024
