POSCAR file written by OVITO Basic 3.9.4
1
7.112353 0.0 0.0
-0.3045317987 15.0028 0.0
-0.0113447278 0.0850904804 7.328860025
Al Zr Nb Ta Ni Cu 
6 6 16 11 13 5 
Cartesian
1.68692 3.66601 5.42735
5.19759 3.66178 5.42221
6.9252 5.39485 1.81665
3.4751 1.81458 1.80081
3.47095 1.86691 5.43028
3.40973 5.44051 5.41314
-0.00198844 0.090491 7.21712
5.23962 1.79195 0.00174404
5.16273 5.42803 3.61639
5.20049 3.61129 1.80858
6.98827 1.80499 1.81169
6.97826 1.85609 5.41972
-0.0590872 3.58559 0.00588196
3.45298 3.63258 3.60735
1.64087 5.46561 7.22774
-0.0902061 5.44317 5.42963
0.1604284037 9.3477528005 3.6286689679
3.4353974521 12.9922743949 3.4593149259
3.4410416177 9.4162428005 3.5177115095
1.7038455534 7.7613928005 0.0982706286
5.2172821825 10.9095928005 6.8405501827
1.5033406748 9.0520228005 5.3742567993
5.2807882978 12.6726228005 1.569552506
5.4635153843 9.8034928005 1.6741311696
6.8900607011 7.8742828005 1.7243715851
3.5589395447 7.4218128005 1.7791936736
3.5954947624 7.6150028005 5.2821592453
3.494610202 11.2688428005 1.8769097018
3.3739485829 12.5607828005 6.9096702512
3.5373298249 9.3233228005 -0.1014727526
1.7996241437 7.5099128005 3.5565668622
1.3740547684 11.6770428005 3.5006980983
5.3158832668 7.4434628005 0.1245530409
5.6335412477 11.0013928005 3.8600730828
1.6571086191 13.0229870949 1.3232678279
1.7622064973 9.6427328005 1.6970296609
5.3962165426 9.0238028005 5.0895314888
0.1772026424 11.4508828005 5.7379369766
3.2961535916 11.0207228005 5.2225579977
6.95341 3.62905 3.61707
3.5104 0.0533493 3.62088
3.44285 3.60128 0.00101741
1.70399 1.87394 7.22294
1.72242 1.83586 3.61093
1.65655 5.42509 3.61741
5.23753 1.83367 3.61278
5.16647 5.45492 7.22789
1.76042 0.0274038 1.79801
1.7457 0.072622 5.4203
1.69285 3.61287 1.80344
5.27234 0.0642297 5.42448
3.4042 5.41949 1.80523
6.8801083188 9.3123928005 -0.0146391756
1.811972555 10.6140228005 6.8619576554
5.0962873523 7.4841128005 3.24986137
6.9139048953 7.3910928005 5.4397727499
0.2462978839 11.1179628005 1.0397471814
