Ni6 Cu15 Nb3 
1.0
7.8978550079446626e+00 0.0000000000000000e+00 0.0000000000000000e+00 
3.1598789625215960e-05 4.4819515068671532e+00 0.0000000000000000e+00 
-5.7757715153945123e-06 1.0451140520726908e-01 8.5199457902581788e+00 
Ni Cu Nb 
6 15 3 
Cartesian
   7.8807521035    3.0161319598    2.1183056019
   2.6497657961    3.0161319598    2.1183056019
   3.9906096076    2.3075854510    4.2496041211
   6.5398871449    2.3075854510    4.2496041211
   1.3163218402    2.3464823937    8.5082734645
   5.2652560569    3.0672293053    6.3740952036
   4.0158421453    0.8062670199    2.1856642933
   6.5146444912    0.8062670199    2.1856642933
   4.0259314022    2.2143363341    0.0052212784
   5.2652591599    3.0478834258    2.1363167673
   6.5045705243    2.2143363332    0.0052212102
   5.2652650443    4.5727276491    8.5021987432
   5.2652678653    4.5139711054    4.2698304724
   7.7661473993    4.5272031779    4.3236509700
   2.7643805377    4.5272031779    4.3236509700
   1.3163259450    2.4701095689    4.2784356177
   4.0227972096    0.8388882152    6.3404840175
   6.5076756372    0.8388882152    6.3404840175
   1.3163127591    0.8131852977    6.2463045367
   7.8548040727    2.9694333127    6.3671684877
   2.6757066727    2.9694333127    6.3671684877
   1.3163156232    0.7887565450    2.2741268904
   7.8948242148    4.5629778051    8.4947608305
   2.6356978499    4.5629778051    8.4947608305
