fcc_Al4_Cu0_Nb0_Ni4_Ta8_W8_Zr8          
   1.00000000000000     
     6.7843626999207363    0.0000000000000000    0.0000000000000000
     0.0000000000000000    9.1360485314227162    0.0000000000000000
     0.0000000000000000    0.0000000000000000    9.0039790071953618
   Al   Ni   Ta   W    Zr
     4     4     8     8     8
Direct
 -0.0159030751435848  0.0172276588008111  0.5197423361313936
  0.2659030751435847  0.2327723411991888  0.5197423361313936
 -0.0159030751435848  0.2327723411991888  0.7302576638686064
  0.2659030751435847  0.0172276588008111  0.7302576638686064
  0.4883963412176082 -0.0060984935714525  0.4989119820108071
  0.7616036587823920  0.2560984935714525  0.4989119820108071
  0.4883963412176082  0.2560984935714525  0.7510880179891929
  0.7616036587823920 -0.0060984935714525  0.7510880179891929
  0.0088526224032371 -0.0007078987899327 -0.0116367866592341
  0.2411473775967629  0.2507078987899328 -0.0116367866592341
  0.0088526224032371  0.2507078987899328  0.2616367866592340
  0.2411473775967629 -0.0007078987899327  0.2616367866592340
  0.4883047596092834  0.5036319473862212 -0.0005161357923585
  0.7616952403907168  0.7463680526137788 -0.0005161357923585
  0.4883047596092834  0.7463680526137788  0.2505161357923585
  0.7616952403907168  0.5036319473862212  0.2505161357923585
  0.0154209948885619  0.4944821890317581  0.5034307476724857
  0.2345790051114381  0.7555178109682416  0.5034307476724857
  0.0154209948885619  0.7555178109682416  0.7465692523275143
  0.2345790051114381  0.4944821890317581  0.7465692523275143
  0.0104320243369760  0.5025217112442827 -0.0005757547520636
  0.2395679756630240  0.7474782887557173 -0.0005757547520636
  0.0104320243369760  0.7474782887557173  0.2505757547520636
  0.2395679756630240  0.5025217112442827  0.2505757547520636
  0.4972820426219836 -0.0003246316919733 -0.0095456960322361
  0.7527179573780166  0.2503246316919732 -0.0095456960322361
  0.4972820426219836  0.2503246316919732  0.2595456960322361
  0.7527179573780166 -0.0003246316919733  0.2595456960322361
  0.4930791310321289  0.4928153270285808  0.5039094142795872
  0.7569208689678710  0.7571846729714194  0.5039094142795872
  0.4930791310321289  0.7571846729714194  0.7460905857204128
  0.7569208689678710  0.4928153270285808  0.7460905857204128
 
  0.00000000E+00  0.00000000E+00  0.00000000E+00
  0.00000000E+00  0.00000000E+00  0.00000000E+00
  0.00000000E+00  0.00000000E+00  0.00000000E+00
  0.00000000E+00  0.00000000E+00  0.00000000E+00
  0.00000000E+00  0.00000000E+00  0.00000000E+00
  0.00000000E+00  0.00000000E+00  0.00000000E+00
  0.00000000E+00  0.00000000E+00  0.00000000E+00
  0.00000000E+00  0.00000000E+00  0.00000000E+00
  0.00000000E+00  0.00000000E+00  0.00000000E+00
  0.00000000E+00  0.00000000E+00  0.00000000E+00
  0.00000000E+00  0.00000000E+00  0.00000000E+00
  0.00000000E+00  0.00000000E+00  0.00000000E+00
  0.00000000E+00  0.00000000E+00  0.00000000E+00
  0.00000000E+00  0.00000000E+00  0.00000000E+00
  0.00000000E+00  0.00000000E+00  0.00000000E+00
  0.00000000E+00  0.00000000E+00  0.00000000E+00
  0.00000000E+00  0.00000000E+00  0.00000000E+00
  0.00000000E+00  0.00000000E+00  0.00000000E+00
  0.00000000E+00  0.00000000E+00  0.00000000E+00
  0.00000000E+00  0.00000000E+00  0.00000000E+00
  0.00000000E+00  0.00000000E+00  0.00000000E+00
  0.00000000E+00  0.00000000E+00  0.00000000E+00
  0.00000000E+00  0.00000000E+00  0.00000000E+00
  0.00000000E+00  0.00000000E+00  0.00000000E+00
  0.00000000E+00  0.00000000E+00  0.00000000E+00
  0.00000000E+00  0.00000000E+00  0.00000000E+00
  0.00000000E+00  0.00000000E+00  0.00000000E+00
  0.00000000E+00  0.00000000E+00  0.00000000E+00
  0.00000000E+00  0.00000000E+00  0.00000000E+00
  0.00000000E+00  0.00000000E+00  0.00000000E+00
  0.00000000E+00  0.00000000E+00  0.00000000E+00
  0.00000000E+00  0.00000000E+00  0.00000000E+00
