Nb7 
1.0
2.8792590590258511e+00 0.0000000000000000e+00 0.0000000000000000e+00 
-4.1351288391223450e-07 4.7018013984124929e+00 0.0000000000000000e+00 
9.5966198538172409e-01 2.3508988109069606e+00 9.5010800197772411e+00 
Nb 
7 
Cartesian
   2.3993419580    2.3509254801    5.4291926546
   1.4395988277    4.7018264490    4.0718873652
   3.3590808358    4.7018282604    6.7864884430
   0.4798605258    2.3509283705    2.7145915768
   1.4395610681    2.3509277617    8.1437842314
   2.3993797176    4.7018269886    1.3572957884
   2.3990753637    4.7018183173    9.5010800198
