Cu1 Nb3 
1.0
4.7583249518718178e+00 0.0000000000000000e+00 0.0000000000000000e+00 
2.3791624759359191e+00 4.1208302878365952e+00 0.0000000000000000e+00 
2.3791624759358809e+00 1.3736100959801409e+00 3.8851560541228136e+00 
Cu Nb 
1 3 
Cartesian
   7.1374874278    1.3736100960    3.8851560541
   2.3791624759    1.3736100960    0.9712890135
   7.1374874278    4.1208302879    2.9138670406
   4.7583249519    2.7472201919    1.9425780271
