Al2 Cu6
1.0
   2.5689587199999999   -4.4495668500000001    0.0000000000000000
   2.5689587199999999    4.4495668500000001    0.0000000000000000
   0.0000000000000000    0.0000000000000000    4.2061400600000001
Al Cu
2 6
direct
   0.3333330000000000    0.6666670000000000    0.7500000000000000 Al
   0.6666670000000000    0.3333330000000000    0.2500000000000000 Al
   0.1655323600000000    0.3310657100000000    0.2500000000000000 Cu
   0.6689342900000000    0.8344676400000001    0.2500000000000000 Cu
   0.1655323600000000    0.8344676400000001    0.2500000000000000 Cu
   0.8344676400000001    0.6689342900000000    0.7500000000000000 Cu
   0.3310657100000000    0.1655323600000000    0.7500000000000000 Cu
   0.8344676400000001    0.1655323600000000    0.7500000000000000 Cu
