Ni1 
1.0
2.4288839878642818e+00 0.0000000000000000e+00 0.0000000000000000e+00 
-8.0962799595310675e-01 2.2899737847121466e+00 0.0000000000000000e+00 
-8.0962799598301971e-01 -1.1449868923385955e+00 1.9831754715603038e+00 
Ni 
1 
Cartesian
  -0.0000000000    0.0000000000    0.0000000000
