Nb3 Cu1
1.0
   0.0000000000000000    3.2385060000000001    3.2385060000000001
   3.2385060000000001    0.0000000000000000    3.2385060000000001
   3.2385060000000001    3.2385060000000001    0.0000000000000000
Nb Cu
3 1
direct
   0.2500000000000000    0.2500000000000000    0.2500000000000000 Nb
   0.7500000000000000    0.7500000000000000    0.7500000000000000 Nb
   0.5000000000000000    0.5000000000000000    0.5000000000000000 Nb
   0.0000000000000000    0.0000000000000000    0.0000000000000000 Cu
