Zr10 Al2 Ni8                            
   1.00000000000000     
     7.1900623014500633    0.0000000107105214    0.0000000000000000
    -0.0000000107105214    7.1900623014500633    0.0000000000000000
     0.0000000000000000    0.0000000000000000    6.6584525645147821
   Zr   Al   Ni
    10     2     8
Direct
  0.3513015580716196  0.1882059820583340 -0.0000000000000000
  0.8117940179416664  0.3513015580716196  0.5000000000000000
  0.1882059820583340  0.6486984419283730  0.5000000000000000
 -0.0000000000000000  0.0000000000000000  0.7500000000000000
  0.1880351686387360  0.6484967594829686 -0.0000000000000000
  0.6486984419283730  0.8117940179416664 -0.0000000000000000
  0.3515032405170243  0.1880351686387360  0.5000000000000000
  0.6484967594829686  0.8119648313612572  0.5000000000000000
  0.8119648313612572  0.3515032405170243 -0.0000000000000000
 -0.0000000000000000  0.0000000000000000  0.2500000000000000
  0.5000000000000000  0.5000000000000000  0.2500000000000000
  0.5000000000000000  0.5000000000000000  0.7500000000000000
  0.6317907115075494  0.1219193375265174  0.7502050844551724
  0.1219193375265174  0.3682092884924507  0.7497949155448276
  0.8780806624734823  0.6317907115075494  0.7497949155448276
  0.8780806624734823  0.6317907115075495  0.2502050844551724
  0.3682092884924507  0.8780806624734823  0.7502050844551724
  0.3682092884924507  0.8780806624734823  0.2497949155448277
  0.6317907115075495  0.1219193375265174  0.2497949155448277
  0.1219193375265174  0.3682092884924507  0.2502050844551724
 
  0.00000000E+00  0.00000000E+00  0.00000000E+00
  0.00000000E+00  0.00000000E+00  0.00000000E+00
  0.00000000E+00  0.00000000E+00  0.00000000E+00
  0.00000000E+00  0.00000000E+00  0.00000000E+00
  0.00000000E+00  0.00000000E+00  0.00000000E+00
  0.00000000E+00  0.00000000E+00  0.00000000E+00
  0.00000000E+00  0.00000000E+00  0.00000000E+00
  0.00000000E+00  0.00000000E+00  0.00000000E+00
  0.00000000E+00  0.00000000E+00  0.00000000E+00
  0.00000000E+00  0.00000000E+00  0.00000000E+00
  0.00000000E+00  0.00000000E+00  0.00000000E+00
  0.00000000E+00  0.00000000E+00  0.00000000E+00
  0.00000000E+00  0.00000000E+00  0.00000000E+00
  0.00000000E+00  0.00000000E+00  0.00000000E+00
  0.00000000E+00  0.00000000E+00  0.00000000E+00
  0.00000000E+00  0.00000000E+00  0.00000000E+00
  0.00000000E+00  0.00000000E+00  0.00000000E+00
  0.00000000E+00  0.00000000E+00  0.00000000E+00
  0.00000000E+00  0.00000000E+00  0.00000000E+00
  0.00000000E+00  0.00000000E+00  0.00000000E+00
