Zr2 Ni6                                 
   1.00000000000000     
     5.3147302804919105    0.0000000055490665    0.0000000000000000
    -2.6573646256346906    4.6026905478844444    0.0000000000000000
     0.0000000000000000    0.0000000000000000    4.3115250367284697
   Zr   Ni
     2     6
Direct
  0.6666669999999968  0.3333330000000032  0.7500000000000000
  0.3333330000000032  0.6666669999999968  0.2500000000000000
  0.1560355208961842  0.3120730517909723  0.7500000000000000
  0.8439644791024544  0.1560355208947923  0.2500000000000000
  0.8439644791038158  0.6879269482090277  0.2500000000000000
  0.1560355208975457  0.8439644791052078  0.7500000000000000
  0.6879269482062743  0.8439644791038158  0.7500000000000000
  0.3120730517937257  0.1560355208961842  0.2500000000000000
 
  0.00000000E+00  0.00000000E+00  0.00000000E+00
  0.00000000E+00  0.00000000E+00  0.00000000E+00
  0.00000000E+00  0.00000000E+00  0.00000000E+00
  0.00000000E+00  0.00000000E+00  0.00000000E+00
  0.00000000E+00  0.00000000E+00  0.00000000E+00
  0.00000000E+00  0.00000000E+00  0.00000000E+00
  0.00000000E+00  0.00000000E+00  0.00000000E+00
  0.00000000E+00  0.00000000E+00  0.00000000E+00
