Ni16 Cu4 Zr4 W8 
1.0
7.8021175357272270e+00 0.0000000000000000e+00 0.0000000000000000e+00 
0.0000000000000000e+00 7.1257705546021342e+00 0.0000000000000000e+00 
0.0000000000000000e+00 0.0000000000000000e+00 7.8030714942482255e+00 
Ni Cu Zr W 
16 4 4 8 
Cartesian
   3.9609244157    0.0085953182    0.0993260774
   5.7917225039    1.7728489594    0.0993260774
   3.9609244157    1.7728489594    1.8514425765
   5.7917225039    0.0085953182    1.8514425765
   0.0655739891    3.4837393438    3.7856289231
   1.8849525860    5.4234738495    3.7856289231
   0.0655739891    5.4234738495    5.9682104447
   1.8849525860    3.4837393438    5.9682104447
   0.0993139343    0.0085942494    3.9614087147
   1.8512162298    1.7728489594    3.9614087147
   0.0993139343    1.7728489594    5.7924306531
   1.8512162298    0.0085942494    5.7924306531
   3.7851661140    3.4837393438    0.0655810704
   5.9674808057    5.4234738495    0.0655810704
   3.7851661140    5.4234738495    1.8851830577
   5.9674808057    3.4837393438    1.8851830577
   7.7683031583    0.1842603127    7.7692529824
   1.9843437613    1.5971844636    7.7692529824
   7.7683031583    1.5971844636    1.9845863854
   1.9843437613    0.1842603127    1.9845863854
   3.7635152378    3.4740197927    3.7639753998
   5.9891316818    5.4331934005    3.7639753998
   3.7635152378    5.4331934005    5.9898639681
   5.9891316818    3.4740197927    5.9898639681
   0.1045171665    3.4171846468    0.1045299457
   1.8460122174    5.4900285465    0.1045299457
   0.1045171665    5.4900285465    1.8462379278
   1.8460122174    3.4171846468    1.8462379278
   3.7872648836    0.1616017875    3.7877279494
   5.9653820361    1.6198444140    3.7877279494
   3.7872648836    1.6198444140    5.9661114184
   5.9653820361    0.1616017875    5.9661114184
