Nb1 Al1 Ni2
1.0
   3.6504299800000002    0.0000000000000000    2.1075765099999999
   1.2168099900000000    3.4416588699999999    2.1075765099999999
  -0.0000000000000000   -0.0000000000000000    4.2151530199999998
Nb Al Ni
1 1 2
direct
   0.5000000000000000    0.5000000000000000    0.5000000000000000 Nb
  -0.0000000000000000   -0.0000000000000000    0.0000000000000000 Al
   0.2500000000000000    0.2500000000000000    0.2500000000000000 Ni
   0.7500000000000000    0.7500000000000000    0.7500000000000000 Ni
