Al4 Ni15
1.0
   3.5752000000000002    0.0000000000000000    0.0000000000000000
   0.0000000000000000    3.5752000000000002    0.0000000000000000
   0.0000000000000000    0.0000000000000000   17.2924620000000004
Al Ni
4 15
direct
   0.0000000000000000    0.0000000000000000    0.1935820000000000 Al
   0.0000000000000000    0.0000000000000000    0.4000740000000000 Al
   0.0000000000000000    0.0000000000000000    0.5999260000000000 Al
   0.0000000000000000    0.0000000000000000    0.8064180000000000 Al
   0.5000000000000000    0.5000000000000000    0.0000000000000000 Ni
   0.5000000000000000    0.5000000000000000    0.1938639999999990 Ni
   0.5000000000000000    0.5000000000000000    0.3990160000000000 Ni
   0.5000000000000000    0.5000000000000000    0.6009840000000000 Ni
   0.5000000000000000    0.5000000000000000    0.8061360000000000 Ni
   0.5000000000000000    0.0000000000000000    0.0902790000000000 Ni
   0.5000000000000000    0.0000000000000000    0.2974680000000000 Ni
   0.5000000000000000    0.0000000000000000    0.5000000000000000 Ni
   0.5000000000000000    0.0000000000000000    0.7025319999999990 Ni
   0.5000000000000000    0.0000000000000000    0.9097210000000000 Ni
   0.0000000000000000    0.5000000000000000    0.0902790000000000 Ni
   0.0000000000000000    0.5000000000000000    0.2974680000000000 Ni
   0.0000000000000000    0.5000000000000000    0.5000000000000000 Ni
   0.0000000000000000    0.5000000000000000    0.7025319999999990 Ni
   0.0000000000000000    0.5000000000000000    0.9097210000000000 Ni
