Al2 Cu6 
1.0
4.2295950976932666e+00 0.0000000000000000e+00 0.0000000000000000e+00 
8.3822421794164869e-18 4.5693542833135066e+00 0.0000000000000000e+00 
4.0611270612909494e-17 -7.4482337729306411e-17 5.1871779669684663e+00 
Al Cu 
2 6 
Cartesian
   0.0000000000    0.0447830990    5.1871779670
   2.1147975488    1.4768107350    2.5935889835
   0.0000000000    0.0129591457    2.5935889835
   2.1147975488    1.5086362876    5.1871779670
   4.2295950977    2.3099913644    1.2986515015
   0.0000000000    2.3099913644    3.8885264655
   2.1147975488    3.7809578953    1.2949374820
   2.1147975488    3.7809578953    3.8922404849
