Al1 Ni3 
1.0
4.0545453607734130e+00 0.0000000000000000e+00 0.0000000000000000e+00 
2.0273073513681341e+00 3.5112803800773462e+00 0.0000000000000000e+00 
2.0272335582033336e+00 1.1703320733929905e+00 3.3105467372276483e+00 
Al Ni 
1 3 
Cartesian
   2.0275508873    3.5112628238    0.0000000005
   6.0818329481    3.5112081695    2.4829166740
   4.0545411079    2.3408027155    1.6552733686
   2.0272411584    1.1703832163    0.8276300632
