Converted from final.data
1.0
15.4689857860550237 0.0000000000000000 0.0000000000000000
-0.9372173281641059 32.7256775637879826 0.0000000000000000
-0.3913265772446712 0.1683871228874683 14.5171051669438036
Al Cu W Nb Ta
16 24 7 2 13
Direct
0.0761216907637778 0.8720001782622387 0.7507731713653600
0.1061342850212618 0.0560973291099565 0.9838932495058025
0.1071341712958660 0.9638794353280056 0.1497646197300965
0.1004604659001514 0.0423033372568448 0.6645435282571590
0.3115680553501451 0.8058308597039402 0.6041156045252631
0.8139783584112256 0.9116362460601803 0.7598626838612001
0.2974987136336721 0.9630231514987968 0.8363945573780434
-0.0238082086082376 0.1581053680813469 0.6699982589601094
0.1981346209938437 0.0756407421247677 0.5170365671559830
0.1572717255245034 0.3553212703582064 0.4943325110898230
0.3463520190757018 0.2969870595120461 0.5699567496468309
0.5063584758204683 0.0107324543285437 0.0240361457130942
0.3065820822708329 0.0788372426522613 0.8517750045176040
0.9801078670853193 0.9491854867383613 0.6840821919107279
0.0803495450608440 0.1771726926816464 0.8402592766973025
0.3426372850776461 0.2128415315241002 0.1502297586955837
0.9739314652232725 0.9950652412683979 0.4545807300247269
0.1789126594226198 0.9285140046618248 0.6874797988546537
0.1482502054142175 0.9959166867792572 0.7674102069969293
0.0820946836493880 0.9068973620425931 0.0455021203826427
0.2573493650796163 0.8860812951189927 0.8525288777650130
0.1937916756062801 0.8633107225019069 0.0371666861064688
0.3089007953448499 0.8076831961597695 0.9548513613085211
0.2413814920546881 0.0077206832346190 0.6676275300888410
0.2453942405515327 0.9376444247313184 0.5222569146317421
0.0921582321258820 0.0143739484779515 0.4400069679541038
0.0653451914754570 0.1075933557404907 0.5947971160244718
0.2410961593385061 0.0893169887039625 0.6834874334775808
0.5628132849676606 0.0208307652133856 0.8645847790842363
0.1660995586044288 0.1350553452593183 0.9738925809548549
0.2786744019141117 0.2133607186941060 0.4641090170673664
0.1273901054886998 0.3802650299484294 0.3167781475799090
0.7975989474898211 0.3428098536984087 0.8251308965796522
0.1469829383156818 0.1616425659791965 0.4476641999489895
0.1302215456445414 0.3929601350097504 0.6490450683335945
0.0751254851747189 0.1908563955755604 0.0124564046871464
0.0934143200463867 0.3094927710095864 0.5935668334348175
0.3814518287305650 0.0164228016273935 0.9295051461372413
0.0328750001124965 0.1679906891585475 0.3155256953746179
0.9976282928418355 0.0744148399329807 0.7003182307139031
0.3740989272975218 0.2277706778322155 0.8445012397128254
0.3763745808926262 0.9633034815712065 0.4309686139940324
0.4768244629281677 0.8973739165256408 0.3390083827968602
0.5389000354153777 0.0693230371510582 0.5053673942181074
0.4330696820199668 -0.0016118980599624 0.5802988264664034
0.7891065203421560 0.3133995843695314 0.4215183155530255
0.6894995583407653 0.2177517098748108 0.7369905021900031
0.1047021955444758 0.0961076573360897 0.7992641803930609
0.0992712714743881 0.3994475960125645 0.0690562479196124
0.3451165379519927 0.1544225540924892 0.0038336571657589
0.3195609192708835 0.8847290201933372 0.6743891199950307
0.5112399530899432 0.2764327284567949 0.6617311004118772
0.1464778558620039 0.1762674926222826 0.6405373842381150
0.2382096340399361 0.2185167578681457 0.9827987400026372
0.4066780015926438 0.1229348963914498 0.7111506077266959
0.5519520973985174 0.1458911423722448 0.0013322951343921
0.9740558190234083 0.3202448649166104 0.7603055093662993
0.3511125313345710 0.2119151339116081 0.6623660414396983
0.0482484707194690 0.2526009672484010 0.9054080968730497
0.3540757443778640 0.2857438696453547 0.3594840919986254
0.9967061119840241 0.1104911296732196 0.9947912517648954
0.8866940006848711 0.2536658708624577 0.3941691967847096
