Ta1 
1.0
2.8815799341781005e+00 0.0000000000000000e+00 0.0000000000000000e+00 
-9.6052664413388722e-01 2.7167796161159963e+00 0.0000000000000000e+00 
-9.6052664529615961e-01 -1.3583898065956541e+00 2.3528001638124216e+00 
Ta 
1 
Cartesian
  -0.0000000000    0.0000000000    0.0000000000
