Ta22 Al8                                
   1.00000000000000     
     5.2115760563660203    0.0000000000000000    0.0000000000000000
     0.0000000000000000   10.0105200213992589    0.0030799010182207
     0.0000000000000000    0.0714722638415859   10.0897999925809199
   Ta   Al
    22     8
Direct
  0.2497530513198774  0.3187689044246298  0.6843364480234065
  0.2497530513198774  0.6812310955753700  0.3156635519765936
  0.7466588040138404  0.8180731102093527  0.8205969174980056
  0.7466588040138404  0.1819268897906472  0.1794030825019946
  0.7502469486801228  0.6812310955753700  0.3156635519765936
  0.7502469486801228  0.3187689044246298  0.6843364480234065
  0.2533411959861594  0.1819268897906472  0.1794030825019946
  0.2533411959861594  0.8180731102093527  0.8205969174980056
  0.5000000000000000  0.1033420064346249  0.8969279098034256
  0.5000000000000000  0.8966579935653750  0.1030720901965744
  0.0000000000000000  0.6028327098919050  0.6027834168109916
  0.0000000000000000  0.3971672901080949  0.3972165831890084
  0.5000000000000000  0.0365857644357762  0.6300724452175075
  0.5000000000000000  0.9634142355642239  0.3699275547824924
  0.0000000000000000  0.5362236661769195  0.8734873665007623
  0.0000000000000000  0.4637763338230804  0.1265126334992375
  0.5000000000000000  0.6283849049317296  0.0361643696847462
  0.5000000000000000  0.3716150950682704  0.9638356303152539
  0.0000000000000000  0.8713590924622981  0.5373884991516885
  0.0000000000000000  0.1286409075377020  0.4626115008483114
  0.5000000000000000  0.7585088740198150  0.5658742441555507
  0.5000000000000000  0.2414911259801849  0.4341257558444491
  0.0000000000000000  0.2628557837133751  0.9347493466763895
  0.0000000000000000  0.7371442162866249  0.0652506533236104
  0.5000000000000000  0.5664378593201953  0.7641520782775850
  0.5000000000000000  0.4335621406798048  0.2358479217224149
  0.0000000000000000  0.9326648026594234  0.2606154366907663
  0.0000000000000000  0.0673351973405766  0.7393845633092339
  0.5000000000000000  0.5000000000000000  0.5000000000000000
  0.0000000000000000 -0.0000000000000000  0.0000000000000000
 
  0.00000000E+00  0.00000000E+00  0.00000000E+00
  0.00000000E+00  0.00000000E+00  0.00000000E+00
  0.00000000E+00  0.00000000E+00  0.00000000E+00
  0.00000000E+00  0.00000000E+00  0.00000000E+00
  0.00000000E+00  0.00000000E+00  0.00000000E+00
  0.00000000E+00  0.00000000E+00  0.00000000E+00
  0.00000000E+00  0.00000000E+00  0.00000000E+00
  0.00000000E+00  0.00000000E+00  0.00000000E+00
  0.00000000E+00  0.00000000E+00  0.00000000E+00
  0.00000000E+00  0.00000000E+00  0.00000000E+00
  0.00000000E+00  0.00000000E+00  0.00000000E+00
  0.00000000E+00  0.00000000E+00  0.00000000E+00
  0.00000000E+00  0.00000000E+00  0.00000000E+00
  0.00000000E+00  0.00000000E+00  0.00000000E+00
  0.00000000E+00  0.00000000E+00  0.00000000E+00
  0.00000000E+00  0.00000000E+00  0.00000000E+00
  0.00000000E+00  0.00000000E+00  0.00000000E+00
  0.00000000E+00  0.00000000E+00  0.00000000E+00
  0.00000000E+00  0.00000000E+00  0.00000000E+00
  0.00000000E+00  0.00000000E+00  0.00000000E+00
  0.00000000E+00  0.00000000E+00  0.00000000E+00
  0.00000000E+00  0.00000000E+00  0.00000000E+00
  0.00000000E+00  0.00000000E+00  0.00000000E+00
  0.00000000E+00  0.00000000E+00  0.00000000E+00
  0.00000000E+00  0.00000000E+00  0.00000000E+00
  0.00000000E+00  0.00000000E+00  0.00000000E+00
  0.00000000E+00  0.00000000E+00  0.00000000E+00
  0.00000000E+00  0.00000000E+00  0.00000000E+00
  0.00000000E+00  0.00000000E+00  0.00000000E+00
  0.00000000E+00  0.00000000E+00  0.00000000E+00
