Cu2 Zr4 
1.0
5.6176810689537078e+00 0.0000000000000000e+00 0.0000000000000000e+00 
4.6777953296184611e+00 3.1103241928314262e+00 0.0000000000000000e+00 
4.2064941539553393e+00 1.2710040549295518e+00 6.6772960244362345e+00 
Cu Zr 
2 4 
Cartesian
   4.4688497713    1.3500868485    1.0535437667
  10.0331207812    3.0312413992    5.6237522577
   1.5291373674    0.4619984812    1.0126653605
   8.6045552297    2.5995371168    2.9616078149
   5.8974153228    1.7817911310    3.7156882095
  12.9728372094    3.9193313217    5.6646306640
