Zr1 Cu1
1.0
   3.2526642500000000   -0.0000000000000000    0.0000000000000000
   0.0000000000000000    3.2526642500000000    0.0000000000000000
  -0.0000000000000000   -0.0000000000000000    3.2526642500000000
Zr Cu
1 1
direct
   0.5000000000000000    0.5000000000000000    0.5000000000000000 Zr
   0.0000000000000000   -0.0000000000000000    0.0000000000000000 Cu
