bcc_Al6_Cu0_Nb0_Ni0_Ta15_W3_Zr0         
   1.00000000000000     
    10.6407302156818862    0.0000000000000000    0.0000000000000000
     0.0000000000000000    6.2398202497826540   -0.0451825479398206
     0.0000000000000000   -0.0451825479398206    6.2398202497826540
   Al   Ta   W 
     6    15     3
Direct
 -0.0000000000000000  0.4952034980156630  0.5047965019843369
  0.3333333333333357  0.4952034980156630  0.5047965019843369
  0.6666666666666643  0.4952034980156630  0.5047965019843369
 -0.0000000000000000  0.0047965019843369 -0.0047965019843369
  0.3333333333333357  0.0047965019843369 -0.0047965019843369
  0.6666666666666643  0.0047965019843369 -0.0047965019843369
  0.1666666666666643  0.2500000000000000  0.2500000000000000
  0.5000000000000000  0.2500000000000000  0.2500000000000000
  0.8333333333333357  0.2500000000000000  0.2500000000000000
 -0.0000000000000000  0.0037135645919052  0.5037135645919051
  0.3333333333333357  0.0037135645919052  0.5037135645919051
  0.6666666666666643  0.0037135645919052  0.5037135645919051
  0.1666666666666643  0.7500000000000000  0.7500000000000000
  0.5000000000000000  0.7500000000000000  0.7500000000000000
  0.8333333333333357  0.7500000000000000  0.7500000000000000
  0.1666666666666643  0.7500000000000000  0.2500000000000000
  0.5000000000000000  0.7500000000000000  0.2500000000000000
  0.8333333333333357  0.7500000000000000  0.2500000000000000
 -0.0000000000000000  0.4962864354080946 -0.0037135645919052
  0.3333333333333357  0.4962864354080946 -0.0037135645919052
  0.6666666666666643  0.4962864354080946 -0.0037135645919052
  0.1666666666666643  0.2500000000000000  0.7500000000000000
  0.5000000000000000  0.2500000000000000  0.7500000000000000
  0.8333333333333357  0.2500000000000000  0.7500000000000000
 
  0.00000000E+00  0.00000000E+00  0.00000000E+00
  0.00000000E+00  0.00000000E+00  0.00000000E+00
  0.00000000E+00  0.00000000E+00  0.00000000E+00
  0.00000000E+00  0.00000000E+00  0.00000000E+00
  0.00000000E+00  0.00000000E+00  0.00000000E+00
  0.00000000E+00  0.00000000E+00  0.00000000E+00
  0.00000000E+00  0.00000000E+00  0.00000000E+00
  0.00000000E+00  0.00000000E+00  0.00000000E+00
  0.00000000E+00  0.00000000E+00  0.00000000E+00
  0.00000000E+00  0.00000000E+00  0.00000000E+00
  0.00000000E+00  0.00000000E+00  0.00000000E+00
  0.00000000E+00  0.00000000E+00  0.00000000E+00
  0.00000000E+00  0.00000000E+00  0.00000000E+00
  0.00000000E+00  0.00000000E+00  0.00000000E+00
  0.00000000E+00  0.00000000E+00  0.00000000E+00
  0.00000000E+00  0.00000000E+00  0.00000000E+00
  0.00000000E+00  0.00000000E+00  0.00000000E+00
  0.00000000E+00  0.00000000E+00  0.00000000E+00
  0.00000000E+00  0.00000000E+00  0.00000000E+00
  0.00000000E+00  0.00000000E+00  0.00000000E+00
  0.00000000E+00  0.00000000E+00  0.00000000E+00
  0.00000000E+00  0.00000000E+00  0.00000000E+00
  0.00000000E+00  0.00000000E+00  0.00000000E+00
  0.00000000E+00  0.00000000E+00  0.00000000E+00
