hcp_Al12_Cu0_Nb6_Ni0_Ta0_W3_Zr3         
   1.00000000000000     
     8.6500853454282574    0.0000000000000000    0.0000000000000000
     0.0000000000000000    5.0407651844627956   -0.5587007271641028
     0.0000000000000000   -1.0746035236971601    9.6437294911434233
   Al   Nb   W    Zr
    12     6     3     3
Direct
  0.0005733712614695  0.0412122525723624 -0.0027324057538748
  0.1666669999999968  0.1120396128874285  0.2576320493939034
  0.3327596287385338  0.0412122525723624 -0.0027324057538748
  0.0039447178733982  0.6189939183885504  0.2572517127104844
  0.1666669999999968  0.5514282485208578 -0.0040399081324755
  0.3293882821266051  0.6189939183885504  0.2572517127104844
  0.4987600910229846  0.5463735253379045  0.4971373901028073
  0.6666669999999968  0.6229404516963383  0.7499622275661613
  0.8345729089770185  0.5463735253379045  0.4971373901028073
  0.5025859256948491  0.1130484254971679  0.7534483095174012
  0.6666669999999968  0.0783870052174055  0.4890109122904828
  0.8307470743051540  0.1130484254971679  0.7534483095174012
 -0.0122817004205304  0.0446643720007188  0.4987581615551430
  0.1666669999999968  0.1325037119388361  0.7585339995738682
  0.3456147004205336  0.0446643720007188  0.4987581615551430
 -0.0053625946816722  0.6199127048044968  0.7456206499176939
  0.1666669999999968  0.5461109038996486  0.4969898156755420
  0.3386955946816753  0.6199127048044968  0.7456206499176939
  0.4874828447332740  0.1226980872527799  0.2468550888314401
  0.6666669999999968  0.0317488221147096 -0.0007067780181350
  0.8458501552667294  0.1226980872527799  0.2468550888314401
  0.4912458702469333  0.5402193549784553 -0.0008717898187560
  0.6666669999999968  0.6305999620598640  0.2616834475259740
  0.8420871297530699  0.5402193549784553 -0.0008717898187560
 
  0.00000000E+00  0.00000000E+00  0.00000000E+00
  0.00000000E+00  0.00000000E+00  0.00000000E+00
  0.00000000E+00  0.00000000E+00  0.00000000E+00
  0.00000000E+00  0.00000000E+00  0.00000000E+00
  0.00000000E+00  0.00000000E+00  0.00000000E+00
  0.00000000E+00  0.00000000E+00  0.00000000E+00
  0.00000000E+00  0.00000000E+00  0.00000000E+00
  0.00000000E+00  0.00000000E+00  0.00000000E+00
  0.00000000E+00  0.00000000E+00  0.00000000E+00
  0.00000000E+00  0.00000000E+00  0.00000000E+00
  0.00000000E+00  0.00000000E+00  0.00000000E+00
  0.00000000E+00  0.00000000E+00  0.00000000E+00
  0.00000000E+00  0.00000000E+00  0.00000000E+00
  0.00000000E+00  0.00000000E+00  0.00000000E+00
  0.00000000E+00  0.00000000E+00  0.00000000E+00
  0.00000000E+00  0.00000000E+00  0.00000000E+00
  0.00000000E+00  0.00000000E+00  0.00000000E+00
  0.00000000E+00  0.00000000E+00  0.00000000E+00
  0.00000000E+00  0.00000000E+00  0.00000000E+00
  0.00000000E+00  0.00000000E+00  0.00000000E+00
  0.00000000E+00  0.00000000E+00  0.00000000E+00
  0.00000000E+00  0.00000000E+00  0.00000000E+00
  0.00000000E+00  0.00000000E+00  0.00000000E+00
  0.00000000E+00  0.00000000E+00  0.00000000E+00
