Ni12 Zr9 W3 
1.0
8.4697457761721875e+00 0.0000000000000000e+00 0.0000000000000000e+00 
4.9027130809246242e-03 5.0952584890296029e+00 0.0000000000000000e+00 
-1.3115896681083590e+00 -2.6938443355151159e-01 8.8691346000115256e+00 
Ni Zr W 
12 9 3 
Cartesian
   0.6848065304    2.0951566089    0.9432324647
   2.4061391083    3.7420923061    2.1894700439
   0.6914072896    0.2504861802    2.8717370921
   0.5851274881    4.5493198442    0.6673970572
   7.2875805070    3.8352569822    2.3893359921
   4.8969314777    3.4651261130    1.8601058614
   5.0889577453    0.1155037797    3.7238924136
   6.9274550438    3.5375152847    0.0404420121
   1.3473206382    3.0016792453    8.7731971710
   3.6472619862    2.0243271204    8.5713888824
   4.8638735172    1.3018063871    6.0276501260
   6.4149658941    0.2859413757    7.7257612439
   3.2651276757    1.0847635518    1.7124968542
   0.6722770720    2.6285267263    3.7605574161
   6.7974736851    1.1639875067    1.5855795381
   2.2534816655    2.5787829817    6.4455992249
   0.6729307369    0.2955767483    7.7848030729
   2.5250413715    0.0556679364    4.8474698613
   3.5948309387    4.7032003280    8.1731292623
  -1.0455578455    2.7371906597    7.1212765061
   7.5198777070    0.1669059492    4.9920456244
   3.6705593945    2.6504949956    3.9669776548
   6.1470552375    2.6713026552    4.1770519769
   5.0368713522    3.8746506709    6.0790290227
