fcc_Al8_Cu0_Nb4_Ni4_Ta12_W4_Zr0         
   1.00000000000000     
     8.8514385445249655    0.0000000000000000    0.0000000000000000
     0.0000000000000000    6.6739355896066810    0.0000000000000000
     0.0000000000000000    0.0000000000000000    8.9325845629515026
   Al   Nb   Ni   Ta   W 
     8     4     4    12     4
Direct
  0.0024366536217353  0.4998940920112282  0.4884627808652217
  0.2475633463782647  0.7501059079887716  0.4884627808652217
  0.0024366536217353  0.7501059079887716  0.7615372191347782
  0.2475633463782647  0.4998940920112282  0.7615372191347782
  0.0140631652704414  0.4585010961583754  0.0193200325306999
  0.2359368347295585  0.7914989038416242  0.0193200325306999
  0.0140631652704414  0.7914989038416242  0.2306799674693000
  0.2359368347295585  0.4585010961583754  0.2306799674693000
  0.4938382209272615  0.0044702421817767  0.0027566022373753
  0.7561617790727387  0.2455297578182234  0.0027566022373753
  0.4938382209272615  0.2455297578182234  0.2472433977626247
  0.7561617790727387  0.0044702421817767  0.2472433977626247
  0.0032472849111453  0.0042398974150533 -0.0146868689627640
  0.2467527150888547  0.2457601025849467 -0.0146868689627640
  0.0032472849111453  0.2457601025849467  0.2646868689627639
  0.2467527150888547  0.0042398974150533  0.2646868689627639
  0.4917595507214017  0.0034839962136247  0.4982070666728923
  0.7582404492785980  0.2465160037863754  0.4982070666728923
  0.4917595507214017  0.2465160037863754  0.7517929333271076
  0.7582404492785980  0.0034839962136247  0.7517929333271076
  0.4881554320989109  0.4989240125603201  0.0042693732069818
  0.7618445679010893  0.7510759874396798  0.0042693732069818
  0.4881554320989109  0.7510759874396798  0.2457306267930181
  0.7618445679010893  0.4989240125603201  0.2457306267930181
  0.4906370488061184  0.4933466223952618  0.4960563751847484
  0.7593629511938816  0.7566533776047385  0.4960563751847484
  0.4906370488061184  0.7566533776047385  0.7539436248152520
  0.7593629511938816  0.4933466223952618  0.7539436248152520
  0.0116152825144712 -0.0036005126394463  0.4996651416610384
  0.2383847174855288  0.2536005126394463  0.4996651416610384
  0.0116152825144712  0.2536005126394463  0.7503348583389613
  0.2383847174855288 -0.0036005126394463  0.7503348583389613
 
  0.00000000E+00  0.00000000E+00  0.00000000E+00
  0.00000000E+00  0.00000000E+00  0.00000000E+00
  0.00000000E+00  0.00000000E+00  0.00000000E+00
  0.00000000E+00  0.00000000E+00  0.00000000E+00
  0.00000000E+00  0.00000000E+00  0.00000000E+00
  0.00000000E+00  0.00000000E+00  0.00000000E+00
  0.00000000E+00  0.00000000E+00  0.00000000E+00
  0.00000000E+00  0.00000000E+00  0.00000000E+00
  0.00000000E+00  0.00000000E+00  0.00000000E+00
  0.00000000E+00  0.00000000E+00  0.00000000E+00
  0.00000000E+00  0.00000000E+00  0.00000000E+00
  0.00000000E+00  0.00000000E+00  0.00000000E+00
  0.00000000E+00  0.00000000E+00  0.00000000E+00
  0.00000000E+00  0.00000000E+00  0.00000000E+00
  0.00000000E+00  0.00000000E+00  0.00000000E+00
  0.00000000E+00  0.00000000E+00  0.00000000E+00
  0.00000000E+00  0.00000000E+00  0.00000000E+00
  0.00000000E+00  0.00000000E+00  0.00000000E+00
  0.00000000E+00  0.00000000E+00  0.00000000E+00
  0.00000000E+00  0.00000000E+00  0.00000000E+00
  0.00000000E+00  0.00000000E+00  0.00000000E+00
  0.00000000E+00  0.00000000E+00  0.00000000E+00
  0.00000000E+00  0.00000000E+00  0.00000000E+00
  0.00000000E+00  0.00000000E+00  0.00000000E+00
  0.00000000E+00  0.00000000E+00  0.00000000E+00
  0.00000000E+00  0.00000000E+00  0.00000000E+00
  0.00000000E+00  0.00000000E+00  0.00000000E+00
  0.00000000E+00  0.00000000E+00  0.00000000E+00
  0.00000000E+00  0.00000000E+00  0.00000000E+00
  0.00000000E+00  0.00000000E+00  0.00000000E+00
  0.00000000E+00  0.00000000E+00  0.00000000E+00
  0.00000000E+00  0.00000000E+00  0.00000000E+00
