Cu1 Ni3                                 
   1.00000000000000     
     1.3064456251414718   -2.0621996658062605    0.0000000000000000
     1.3064456251414718    2.0621996658062605    0.0000000000000000
     0.0000000000000000    0.0000000000000000    8.2780790203844834
   Cu   Ni
     1     3
Direct
  0.0000000000000000  0.0000000000000000  0.0000000000000000
  0.5000000000000000  0.5000000000000000  0.7466456316306774
  0.0000000000000000  0.0000000000000000  0.5000000000000000
  0.5000000000000000  0.5000000000000000  0.2533543683693226
 
  0.00000000E+00  0.00000000E+00  0.00000000E+00
  0.00000000E+00  0.00000000E+00  0.00000000E+00
  0.00000000E+00  0.00000000E+00  0.00000000E+00
  0.00000000E+00  0.00000000E+00  0.00000000E+00
