Al4 Zr24 Ta4 
1.0
8.8528332618850740e+00 0.0000000000000000e+00 0.0000000000000000e+00 
1.2433351360919052e-08 8.8528331226498125e+00 0.0000000000000000e+00 
-4.2613898570534421e-10 5.7722107767214267e-09 8.8571784252533288e+00 
Al Zr Ta 
4 24 4 
Cartesian
   4.4816937248    2.1579311921    2.2790494378
   6.5843478555    0.0552786850    2.2790494378
   4.4816937215    0.0552786893    8.7924235938
   6.5843478581    2.1579311964    8.7924235938
   2.3180966870    2.1590732061    0.0431155046
   2.3180966839    0.0541321545    2.1711778617
   2.2491419717    4.3904829131    2.2173149042
   2.3145201421    2.1553727247    4.3961630824
   8.7479448935    0.0541322417    0.0431153274
   8.7479448963    2.1590732075    2.1711778617
   4.4805517124    4.3215281945    0.0431155046
   6.5854898770    4.3215281959    2.1711778617
   8.7515214379    0.0578387487    4.3961630824
   8.7848080970    4.3583913945    4.4212820404
   4.4842521965    4.3251047419    4.3961630824
   2.2812334955    6.7076500146    4.4212820404
   8.8168996209    6.6755584931    2.2173149042
   6.5854898805    6.7445132089    0.0431155046
   4.4805517157    6.7445132102    2.1711778617
   6.5817893960    6.7409366671    4.3961630824
   2.3145201391    0.0578386616    6.6753099492
   2.2812334921    4.3583913959    6.6501909911
   8.8168996174    4.3904829175    8.8541581274
   8.7515214407    2.1553727262    6.6753099492
   6.5817893925    4.3251047434    6.6753099492
   2.2491419746    6.6755584974    8.8541581274
   8.7848081002    6.7076500160    6.6501909911
   4.4842521998    6.7409366686    6.6753099492
   4.5394938701    0.1130754698    4.4178011693
   6.5265477099    2.1001310461    4.4178011693
   4.5394938728    2.1001310475    6.6536718623
   6.5265477070    0.1130754712    6.6536718623
