Al2 Zr6 
1.0
6.2537000928041540e+00 0.0000000000000000e+00 0.0000000000000000e+00 
-3.1268484137160608e+00 5.4158608099962873e+00 0.0000000000000000e+00 
0.0000000000000000e+00 0.0000000000000000e+00 5.0455780242352235e+00 
Al Zr 
2 6 
Cartesian
  -0.0000020384    3.6105756786    3.7841835182
   3.1268537175    1.8052851314    1.2613945061
   0.0000005559    1.8441439327    1.2613945061
   1.5297752177    4.4937888437    1.2613945061
  -1.5297725083    4.4937888437    1.2613945061
   3.1268511231    3.5717168773    3.7841835182
   1.5970764614    0.9220719663    3.7841835182
   4.6566241874    0.9220719663    3.7841835182
