Al12 Ni4 
1.0
4.7870152865832551e+00 0.0000000000000000e+00 0.0000000000000000e+00 
2.6749464994776696e-05 6.6938852063092602e+00 0.0000000000000000e+00 
-1.7226939428929246e-08 2.5854476288952062e-08 7.3870528633425199e+00 
Al Ni 
12 4 
Cartesian
   4.3760262211    0.0340964487    1.8467632158
   1.7510467893    1.1199070882    3.2927271045
   1.7510467960    1.1199070781    0.4007978498
   4.1445540679    2.2270355408    4.0943257589
   0.6424879509    4.4668496914    3.2927271045
   3.0359952228    5.5739781541    6.9862535361
   0.6424879577    4.4668496812    0.4007985885
   3.0359952296    5.5739781440    4.0943257589
   4.1445540611    2.2270355509    6.9862535361
   2.8045103474    3.3810345670    1.8467632158
   0.4110167551    6.6597865745    5.5402896475
   1.9825316714    3.3128506652    5.5402896475
   2.0872862238    5.7808191890    1.8467632158
   0.3062518442    2.4338765858    1.8467632158
   2.6997557950    0.9130660432    5.5402896475
   4.4807925682    4.2600086463    5.5402896475
