Al4 Ni4 Cu8 Zr12 Nb4 
1.0
7.9005449037863018e+00 0.0000000000000000e+00 0.0000000000000000e+00 
0.0000000000000000e+00 8.6472470523096305e+00 0.0000000000000000e+00 
0.0000000000000000e+00 0.0000000000000000e+00 8.0755171081410229e+00 
Al Ni Cu Zr Nb 
4 4 8 12 4 
Cartesian
   1.8989117687    2.1737795530    4.1072806809
   0.0762247733    2.1737795530    5.9871237798
   0.0762229561    8.6352792624    4.1072806809
   1.8989117687    8.6352792624    5.9871237798
   4.0078832253    4.5003819032    0.0891165615
   5.8677979044    6.3086769122    0.0891165615
   4.0078832253    6.3086769122    1.9297659457
   5.8677979044    4.5003819032    1.9297659457
   0.4606325800    2.1989949254    2.1014675905
   1.5145028559    8.6100725372    2.1014675905
   0.0195838707    4.4706959040    0.2385733868
   1.9555507751    6.3383542641    0.2385725793
   0.0195845028    6.3383629114    1.7803042751
   1.9555507751    4.4707045513    1.7803042751
   1.5145028559    2.1989862782    7.9929287947
   0.4606325800    8.6100638900    7.9929287947
   3.5776037488    2.3626959593    1.6760412737
   6.2980773810    2.3626959593    0.3428339656
   6.0921496780    2.2019868729    3.7576673187
   3.5776037488    8.4463628560    0.3428347731
   3.7835314517    8.6070719425    3.7576673187
   3.8165636299    4.3435727251    3.8967034967
   6.2980773810    8.4463628560    1.6760412737
   6.0591174998    6.4654860903    3.8967034967
   3.7835314517    2.2019868729    6.3367290665
   3.8165636299    6.4654860903    6.1976928884
   6.0921496780    8.6070719425    6.3367290665
   6.0591174998    4.3435813724    6.1977009640
   0.1885488743    4.3521162052    3.8304115768
   1.7865897218    6.4569426102    3.8304115768
   1.7865897218    4.3521162052    6.2639848084
   0.1885480842    6.4569426102    6.2639848084
