Al3 Ni6 Cu6 Zr6 Nb3 
1.0
8.6531715748058122e+00 0.0000000000000000e+00 0.0000000000000000e+00 
-2.7875043369139948e-06 6.5403084925985180e+00 0.0000000000000000e+00 
1.5784484067597789e-06 2.8138980537358349e-01 6.5775361821685774e+00 
Al Ni Cu Zr Nb 
3 6 6 6 3 
Cartesian
   1.4421965100    4.6434596716    1.3252683001
   4.3265841505    4.6434596716    1.3252683001
   7.2109717911    4.6434596716    1.3252683001
   1.4421977796    1.9951082157    1.8709604344
   1.4421986926    1.5304031956    4.6397150925
   4.3265863332    1.5304031956    4.6397150925
   4.3265854202    1.9951082157    1.8709604344
   7.2109730607    1.9951082157    1.8709604344
   7.2109739737    1.5304031956    4.6397150925
   2.8843878458    3.4065059029    6.4176165450
   1.4421972310    5.3165818599    5.2287795003
   4.3265848716    5.3165818599    5.2287795003
   8.6531717800    3.4065059029    6.4176165450
   5.7687841395    3.4065059029    6.4176165450
   7.2109725121    5.3165818599    5.2287795003
   2.8843875071    0.3899440909    0.1270082772
   2.8843870824    3.4790375226    3.5809027831
   8.6531710166    3.4790375226    3.5809027831
   8.6531714414    0.3899440909    0.1270082772
   5.7687838009    0.3899440909    0.1270082772
   5.7687833761    3.4790375226    3.5809027831
  -0.0000019195    6.5257587316    3.1198964271
   2.8843856648    6.5257587316    3.1198964271
   5.7687819585    6.5257587316    3.1198964271
