Al1 Ni3
1.0
   3.5229346000000001    0.0000000000000000   -0.0000000000000000
   0.0000000000000000    3.5231152899999998    0.0000000000000000
   0.0000000000000000    0.0000000000000000    3.5231142900000001
Al Ni
1 3
direct
   0.0000000000000000   -0.0000000000000000   -0.0000000000000000 Al
   0.0000000000000000    0.5000000000000000    0.5000000000000000 Ni
   0.5000000000000000    0.0000000000000000    0.5000000000000000 Ni
   0.5000000000000000    0.5000000000000000    0.0000000000000000 Ni
