fcc_Al28_Cu4_Nb0_Ni0_Ta0_W0_Zr0         
   1.00000000000000     
     7.9667336512470595    0.0000000000000000   -0.0000000000000000
    -0.0000000000000000    7.9667336512470595   -0.0000000000000000
    -0.0000000000000000   -0.0000000000000000    7.9667336512470595
   Al   Cu
    28     4
Direct
  0.0048792493127589  0.4909016100867146  0.5048792493127590
  0.2451207506872410  0.7590983899132853  0.5048792493127590
  0.0048792493127589  0.7590983899132853  0.7451207506872410
  0.2451207506872410  0.4909016100867147  0.7451207506872410
  0.4978592531400884  0.4978592531400884 -0.0021407468599116
  0.7521407468599115  0.7521407468599115 -0.0021407468599116
  0.4978592531400884  0.7521407468599115  0.2521407468599116
  0.7521407468599115  0.4978592531400884  0.2521407468599116
  0.0015531086612314  0.4966837323106910 -0.0033162676893090
  0.2484468913387686  0.7533162676893089 -0.0033162676893090
  0.0015531086612314  0.7533162676893089  0.2533162676893090
  0.2484468913387686  0.4966837323106910  0.2533162676893090
  0.4966837323106910  0.0015531086612314 -0.0033162676893090
  0.7533162676893089  0.2484468913387686 -0.0033162676893090
  0.4966837323106910  0.2484468913387686  0.2533162676893090
  0.7533162676893089  0.0015531086612314  0.2533162676893090
  0.4966837323106910  0.4966837323106910  0.5015531086612313
  0.7533162676893089  0.7533162676893089  0.5015531086612313
  0.4966837323106910  0.7533162676893089  0.7484468913387687
  0.7533162676893089  0.4966837323106910  0.7484468913387687
  0.4909016100867147  0.0048792493127589  0.5048792493127590
  0.7590983899132853  0.2451207506872410  0.5048792493127590
  0.4909016100867146  0.2451207506872410  0.7451207506872410
  0.7590983899132853  0.0048792493127589  0.7451207506872410
  0.0048792493127589  0.0048792493127589 -0.0090983899132854
  0.2451207506872410  0.2451207506872410 -0.0090983899132854
  0.0048792493127589  0.2451207506872410  0.2590983899132853
  0.2451207506872410  0.0048792493127589  0.2590983899132853
 -0.0006785205933043 -0.0006785205933043  0.4993214794066957
  0.2506785205933043  0.2506785205933043  0.4993214794066957
 -0.0006785205933043  0.2506785205933043  0.7506785205933043
  0.2506785205933043 -0.0006785205933043  0.7506785205933043
 
  0.00000000E+00  0.00000000E+00  0.00000000E+00
  0.00000000E+00  0.00000000E+00  0.00000000E+00
  0.00000000E+00  0.00000000E+00  0.00000000E+00
  0.00000000E+00  0.00000000E+00  0.00000000E+00
  0.00000000E+00  0.00000000E+00  0.00000000E+00
  0.00000000E+00  0.00000000E+00  0.00000000E+00
  0.00000000E+00  0.00000000E+00  0.00000000E+00
  0.00000000E+00  0.00000000E+00  0.00000000E+00
  0.00000000E+00  0.00000000E+00  0.00000000E+00
  0.00000000E+00  0.00000000E+00  0.00000000E+00
  0.00000000E+00  0.00000000E+00  0.00000000E+00
  0.00000000E+00  0.00000000E+00  0.00000000E+00
  0.00000000E+00  0.00000000E+00  0.00000000E+00
  0.00000000E+00  0.00000000E+00  0.00000000E+00
  0.00000000E+00  0.00000000E+00  0.00000000E+00
  0.00000000E+00  0.00000000E+00  0.00000000E+00
  0.00000000E+00  0.00000000E+00  0.00000000E+00
  0.00000000E+00  0.00000000E+00  0.00000000E+00
  0.00000000E+00  0.00000000E+00  0.00000000E+00
  0.00000000E+00  0.00000000E+00  0.00000000E+00
  0.00000000E+00  0.00000000E+00  0.00000000E+00
  0.00000000E+00  0.00000000E+00  0.00000000E+00
  0.00000000E+00  0.00000000E+00  0.00000000E+00
  0.00000000E+00  0.00000000E+00  0.00000000E+00
  0.00000000E+00  0.00000000E+00  0.00000000E+00
  0.00000000E+00  0.00000000E+00  0.00000000E+00
  0.00000000E+00  0.00000000E+00  0.00000000E+00
  0.00000000E+00  0.00000000E+00  0.00000000E+00
  0.00000000E+00  0.00000000E+00  0.00000000E+00
  0.00000000E+00  0.00000000E+00  0.00000000E+00
  0.00000000E+00  0.00000000E+00  0.00000000E+00
  0.00000000E+00  0.00000000E+00  0.00000000E+00
