Al8 Ni4 Ta16 W4 
1.0
6.5735353099820761e+00 0.0000000000000000e+00 0.0000000000000000e+00 
-4.5658567047461607e-07 8.9188357317077589e+00 0.0000000000000000e+00 
-2.5826647661364331e-09 2.5618600071738520e-07 8.9109455232932842e+00 
Al Ni Ta W 
8 4 16 4 
Cartesian
   4.9472753125    4.4696478341    2.2140224357
   3.2696433667    4.4696477708    0.0137167967
   3.2696432530    6.6788969578    2.2140224357
   4.9472752000    6.6788968946    0.0137167076
   1.8681789049    2.1145936502    4.5235167417
   1.8681790067    0.1151147111    6.6151651625
   6.3487401158    0.1151146510    4.5235167417
   6.3487400128    2.1145937103    6.6151651625
   3.3674446502    0.0467208247    4.4527192795
   4.8494743706    2.1829921994    4.4527192795
   3.3674445402    2.1829922636    6.6859626246
   4.8494744793    0.0467209781    6.6859626246
   1.6505093151    4.3758395212    2.2601098459
   1.7123993706    0.0666991338    2.3206864536
   6.5045196514    2.1630139460    2.3206864536
   6.5664092503    6.7727052734    2.2601098459
   3.3391650778    4.4119341125    4.4563905890
   1.6681724051    4.3395399861    6.6529386605
   1.7123992614    2.1630141328    8.8179954505
   6.5487462849    4.3395399237    4.4857432436
   6.5664093711    4.3758397115    8.8785720582
   6.5045197568    0.0666994098    8.8179954505
   4.8777536047    4.4119341765    6.6822913151
   4.8777534864    6.7366108083    4.4563905890
   1.6681722793    6.8090049988    4.4857432436
   1.6505091905    6.7727054637    8.8785720582
   6.5487461578    6.8090050611    6.6529386605
   3.3391649581    6.7366108723    6.6822913151
   3.3633952427    2.2022300639    2.2208482199
   4.8535237793    0.0274754292    2.2208482199
   4.8535236686    2.2022300002    0.0068836698
   3.3633953547    0.0274753656    0.0068837678
