Al1 Zr3 
1.0
4.3755419268497873e+00 0.0000000000000000e+00 0.0000000000000000e+00 
0.0000000000000000e+00 4.3755414672761344e+00 0.0000000000000000e+00 
0.0000000000000000e+00 0.0000000000000000e+00 4.3755430593092512e+00 
Al Zr 
1 3 
Cartesian
   4.3755419268    0.0000000026    0.0000000006
   0.0000000012    2.1877707336    2.1877715297
   2.1877709634    2.1877707336    0.0000000014
   2.1877709634    0.0000000079    2.1877715297
