fcc_Al0_Cu4_Nb0_Ni8_Ta0_W12_Zr8         
   1.00000000000000     
     7.5291699086499282    0.0000000000000000    0.0000000000000000
     0.0000000000000000    8.3986429276247510    0.0000000000000000
     0.0000000000000000    0.0000000000000000    8.1615353138124682
   Cu   Ni   W    Zr
     4     8    12     8
Direct
  0.4950052684761469  0.0036788863893086  0.0154993698482714
  0.7549947315238527  0.2463211136106914  0.0154993698482714
  0.4950052684761469  0.2463211136106914  0.2345006301517286
  0.7549947315238527  0.0036788863893086  0.2345006301517286
  0.0060936468842514  0.5094638425595444  0.5168154190906233
  0.2439063531157485  0.7405361574404559  0.5168154190906233
  0.0060936468842514  0.7405361574404559  0.7331845809093767
  0.2439063531157485  0.5094638425595444  0.7331845809093767
  0.0043324649947179  0.0191708330142079  0.0179852585119846
  0.2456675350052820  0.2308291669857921  0.0179852585119846
  0.0043324649947179  0.2308291669857921  0.2320147414880154
  0.2456675350052820  0.0191708330142079  0.2320147414880154
  0.4697163250229486  0.5002227859442668  0.0373200897148669
  0.7802836749770514  0.7497772140557329  0.0373200897148669
  0.4697163250229486  0.7497772140557329  0.2126799102851331
  0.7802836749770514  0.5002227859442668  0.2126799102851331
  0.0431187974973870  0.4850500439322413 -0.0041259822404566
  0.2068812025026130  0.7649499560677586 -0.0041259822404566
  0.0431187974973870  0.7649499560677586  0.2541259822404567
  0.2068812025026130  0.4850500439322413  0.2541259822404567
  0.0308065289981546  0.0012180137454897  0.4896449000957160
  0.2191934710018454  0.2487819862545104  0.4896449000957160
  0.0308065289981546  0.2487819862545104  0.7603550999042836
  0.2191934710018454  0.0012180137454897  0.7603550999042836
  0.4821230642556705  0.5009752281573084  0.4709664969935055
  0.7678769357443294  0.7490247718426917  0.4709664969935055
  0.4821230642556705  0.7490247718426917  0.7790335030064940
  0.7678769357443294  0.5009752281573084  0.7790335030064940
  0.4732149470079686 -0.0051313495194321  0.4782208629553208
  0.7767850529920312  0.2551313495194321  0.4782208629553208
  0.4732149470079686  0.2551313495194321  0.7717791370446797
  0.7767850529920312 -0.0051313495194321  0.7717791370446797
 
  0.00000000E+00  0.00000000E+00  0.00000000E+00
  0.00000000E+00  0.00000000E+00  0.00000000E+00
  0.00000000E+00  0.00000000E+00  0.00000000E+00
  0.00000000E+00  0.00000000E+00  0.00000000E+00
  0.00000000E+00  0.00000000E+00  0.00000000E+00
  0.00000000E+00  0.00000000E+00  0.00000000E+00
  0.00000000E+00  0.00000000E+00  0.00000000E+00
  0.00000000E+00  0.00000000E+00  0.00000000E+00
  0.00000000E+00  0.00000000E+00  0.00000000E+00
  0.00000000E+00  0.00000000E+00  0.00000000E+00
  0.00000000E+00  0.00000000E+00  0.00000000E+00
  0.00000000E+00  0.00000000E+00  0.00000000E+00
  0.00000000E+00  0.00000000E+00  0.00000000E+00
  0.00000000E+00  0.00000000E+00  0.00000000E+00
  0.00000000E+00  0.00000000E+00  0.00000000E+00
  0.00000000E+00  0.00000000E+00  0.00000000E+00
  0.00000000E+00  0.00000000E+00  0.00000000E+00
  0.00000000E+00  0.00000000E+00  0.00000000E+00
  0.00000000E+00  0.00000000E+00  0.00000000E+00
  0.00000000E+00  0.00000000E+00  0.00000000E+00
  0.00000000E+00  0.00000000E+00  0.00000000E+00
  0.00000000E+00  0.00000000E+00  0.00000000E+00
  0.00000000E+00  0.00000000E+00  0.00000000E+00
  0.00000000E+00  0.00000000E+00  0.00000000E+00
  0.00000000E+00  0.00000000E+00  0.00000000E+00
  0.00000000E+00  0.00000000E+00  0.00000000E+00
  0.00000000E+00  0.00000000E+00  0.00000000E+00
  0.00000000E+00  0.00000000E+00  0.00000000E+00
  0.00000000E+00  0.00000000E+00  0.00000000E+00
  0.00000000E+00  0.00000000E+00  0.00000000E+00
  0.00000000E+00  0.00000000E+00  0.00000000E+00
  0.00000000E+00  0.00000000E+00  0.00000000E+00
