bcc_Al0_Cu0_Nb6_Ni3_Ta12_W3_Zr0         
   1.00000000000000     
     9.8351182680032387    0.0000000000000000    0.0000000000000000
     0.0000000000000000    6.5250860778392372    0.0202265383416907
     0.0000000000000000    0.0204610865949244    6.4052563127630320
   Nb   Ni   Ta   W 
     6     3    12     3
Direct
  0.1666666666666643  0.7442067959804580  0.7506081830662608
  0.5000000000000000  0.7442067959804580  0.7506081830662608
  0.8333333333333357  0.7442067959804580  0.7506081830662608
  0.1666666666666643  0.2557932040195419  0.2493918169337393
  0.5000000000000000  0.2557932040195419  0.2493918169337393
  0.8333333333333357  0.2557932040195419  0.2493918169337393
 -0.0000000000000000  0.5000000000000000  0.5000000000000000
  0.3333333333333357  0.5000000000000000  0.5000000000000000
  0.6666666666666643  0.5000000000000000  0.5000000000000000
 -0.0000000000000000 -0.0000000000000000 -0.0000000000000000
  0.3333333333333357 -0.0000000000000000 -0.0000000000000000
  0.6666666666666643 -0.0000000000000000 -0.0000000000000000
  0.1666666666666643  0.7402282942602580  0.2508555412238444
  0.5000000000000000  0.7402282942602580  0.2508555412238444
  0.8333333333333357  0.7402282942602580  0.2508555412238444
 -0.0000000000000000 -0.0000000000000000  0.5000000000000000
  0.3333333333333357 -0.0000000000000000  0.5000000000000000
  0.6666666666666643 -0.0000000000000000  0.5000000000000000
  0.1666666666666643  0.2597717057397421  0.7491444587761555
  0.5000000000000000  0.2597717057397421  0.7491444587761555
  0.8333333333333357  0.2597717057397421  0.7491444587761555
 -0.0000000000000000  0.5000000000000000 -0.0000000000000000
  0.3333333333333357  0.5000000000000000 -0.0000000000000000
  0.6666666666666643  0.5000000000000000 -0.0000000000000000
 
  0.00000000E+00  0.00000000E+00  0.00000000E+00
  0.00000000E+00  0.00000000E+00  0.00000000E+00
  0.00000000E+00  0.00000000E+00  0.00000000E+00
  0.00000000E+00  0.00000000E+00  0.00000000E+00
  0.00000000E+00  0.00000000E+00  0.00000000E+00
  0.00000000E+00  0.00000000E+00  0.00000000E+00
  0.00000000E+00  0.00000000E+00  0.00000000E+00
  0.00000000E+00  0.00000000E+00  0.00000000E+00
  0.00000000E+00  0.00000000E+00  0.00000000E+00
  0.00000000E+00  0.00000000E+00  0.00000000E+00
  0.00000000E+00  0.00000000E+00  0.00000000E+00
  0.00000000E+00  0.00000000E+00  0.00000000E+00
  0.00000000E+00  0.00000000E+00  0.00000000E+00
  0.00000000E+00  0.00000000E+00  0.00000000E+00
  0.00000000E+00  0.00000000E+00  0.00000000E+00
  0.00000000E+00  0.00000000E+00  0.00000000E+00
  0.00000000E+00  0.00000000E+00  0.00000000E+00
  0.00000000E+00  0.00000000E+00  0.00000000E+00
  0.00000000E+00  0.00000000E+00  0.00000000E+00
  0.00000000E+00  0.00000000E+00  0.00000000E+00
  0.00000000E+00  0.00000000E+00  0.00000000E+00
  0.00000000E+00  0.00000000E+00  0.00000000E+00
  0.00000000E+00  0.00000000E+00  0.00000000E+00
  0.00000000E+00  0.00000000E+00  0.00000000E+00
