Al12 Ni8 Ta8 W4 
1.0
8.2840849899329392e+00 0.0000000000000000e+00 0.0000000000000000e+00 
1.9950895363502892e-07 7.3734458263540947e+00 0.0000000000000000e+00 
-5.5451476020373363e-08 5.4197501398276569e-08 7.8980334979167983e+00 
Al Ni Ta W 
12 8 8 4 
Cartesian
   4.0281695145    3.9384081665    7.7926816291
   4.0281695909    5.2783991842    2.0798602433
   2.1494715628    2.1413298027    3.9148735501
   2.1494716820    7.0754775479    5.9576683222
   0.0528607769    7.2581693744    0.0134824171
   2.0181605541    1.9586379087    0.0134824171
   0.0528606199    1.9586379221    1.9610264313
   2.0181606838    7.2581693878    1.9610264313
   6.3269368628    5.2783992234    7.7926816291
   6.3269368667    3.9384081273    2.0798602433
   8.2056348690    7.0754775339    3.9148735501
   8.2056347212    2.1413298168    5.9576683222
   0.0665823555    3.6902179270    0.0745369013
   2.0044422054    5.5265893570    0.0745369803
   0.0665823095    5.5265893695    1.8999746324
   2.0044421429    3.6902179395    1.8999746324
   4.1680214588    3.7448404406    3.9901891976
   6.1870849720    5.4719668971    3.9901891976
   4.1680214923    5.4719669101    5.8823526748
   6.1870849119    3.7448404535    5.8823526748
   4.0507851848    7.2958477092    3.8979638604
   4.0507850247    1.9209596415    5.9745780120
   4.1022293766    7.1862561575    0.0523003039
   4.1022292240    2.0305511390    1.9222075967
   6.3043212473    1.9209596272    3.8979638604
   6.3043213782    7.2958477235    5.9745780120
   6.2528771095    2.0305511261    0.0523002250
   6.2528772359    7.1862561704    1.9222075967
   2.0719740345    5.3425039346    3.8853033127
   2.0719739801    3.8743034161    5.9872385597
   8.2831323977    3.8743034017    3.8853033127
   8.2831324227    5.3425039490    5.9872385597
