Al6 Zr10 
1.0
8.3168536930638428e+00 0.0000000000000000e+00 0.0000000000000000e+00 
-4.1583700720929766e+00 7.2023437889086139e+00 0.0000000000000000e+00 
1.2628425747046778e-16 -5.5915986979598851e-18 5.5773341914013423e+00 
Al Zr 
6 10 
Cartesian
   1.6798984695    2.9094804040    1.3943335479
  -2.4785208561    4.2928633849    1.3943335479
  -0.7974546430    7.2023437889    4.1830006436
   4.9559380165    0.0000004287    1.3943335479
   2.4785851514    4.2928633849    4.1830006436
   6.6370010931    2.9094804040    4.1830006436
   0.0000336917    4.8016225455    0.0000000072
   0.0000336917    4.8016225455    2.7886670957
   1.9629761700    0.0000015692    1.3943335479
   0.9817472891    1.7004085475    4.1830006436
  -0.9817216208    1.7004157498    1.3943335479
   4.1584499293    2.4007212434    2.7886670957
   4.1584499293    2.4007212434    5.5773341914
   5.1402082606    5.5019280391    4.1830006436
   3.1767363318    5.5019352414    1.3943335479
   2.1955065449    7.2023437889    4.1830006436
