Nb7 
1.0
2.8686355060942010e+00 0.0000000000000000e+00 0.0000000000000000e+00 
1.5528438785017085e-02 4.6893613258516416e+00 0.0000000000000000e+00 
9.8093214120766947e-01 2.3936154269978509e+00 9.4604177062891193e+00 
Nb 
7 
Cartesian
   1.4570986191    4.7102981764    4.0544606768
   0.4906966273    2.3586244952    2.7029737845
   2.4084649070    4.6963168292    1.3514868923
   1.4420703899    2.3446478392    0.0000000071
   2.4079743005    2.3726129254    5.4059570295
   3.3743774397    4.7242866066    6.7574439218
   1.4566108828    2.3865947415    8.1089308140
