Converted from final.data
1.0
14.7918266178272084 0.0000000000000000 0.0000000000000000
-0.6576287520895752 31.2018844371047344 0.0000000000000000
-0.0244986540576647 0.1837507500991004 15.2421043775626064
Al Zr Nb Ta Ni Cu
6 6 16 11 13 5
Direct
0.1959791442831800 0.1434303028365874 0.4232118468921135
0.9947210283801202 0.1593343689431653 0.2258528143587784
0.2730759081676133 0.3097903829141569 0.5013205984544767
0.5015691169486243 0.3621563614187555 0.0577190876147826
0.2103364163076402 0.5509302522481885 0.6266963157814898
0.9847395783214503 0.0953715907173936 0.4413127808574759
0.8802571550925450 0.1795437125606712 0.3616855475814944
0.8863660356254939 0.1232475279396088 0.0942289210510880
0.8258658838617244 0.1378365480347486 0.9025811240080021
0.4246776423893235 0.5570633165906400 0.1679134657597619
0.2759210976818842 0.4327150575850994 0.9713118205515849
0.4764463168395678 0.3410847244724662 0.2300622609943683
0.6582477815301961 0.4253115456755735 0.0182156364747715
0.2619572891719017 0.3511320670627901 0.2023646630837316
0.3539145831247309 0.3898626818673994 0.0981882810047214
0.2733893322683288 0.4694662348826005 0.1859621699286063
0.1872646590176113 0.2650867749332373 0.1185272751975461
0.0763739464418809 0.0964710898996175 0.3313827577290520
0.0461378206701536 0.3258289739680217 0.9202696797940926
0.1591738595562406 0.1766435237110765 0.2419656870139638
0.0126890745256413 0.4066634010214755 0.2613423378585133
0.1208065094042420 0.2397206600805760 0.9764338934242519
0.4973231356474819 0.2642281683954344 0.9695530327264604
0.9301183242485046 0.3684968911695954 0.8956579145333031
0.8613947677304130 0.0993606967283391 0.3012243201084034
0.0051344209962155 0.2499091408695311 0.2680919820747039
-0.0320481875151336 0.4750488740253982 0.3889275318482854
0.6630785877680476 0.3382334061693211 0.0033030147958261
0.2258353654607374 0.8450037440339078 0.4275227155302124
0.6419972878121176 0.1002465856276907 0.2988327953256659
0.2031240975036928 0.2617203145327264 0.3072699111883149
0.0649076262725267 0.4052196650428210 0.4345462293606955
0.6905905215791585 0.2642440890579063 0.9965120714423227
0.2032972542862379 0.0953564204250944 0.1904859888193407
0.2432037357764928 0.0613464727131228 0.4479508529209745
0.3127396064155357 0.8721156101755501 0.6553800015718506
0.7295182254043647 0.3952615095457814 0.4496512387032685
0.8529467652465172 0.3104482140712556 -0.0259248908375414
0.4525434816579527 0.3364219342135145 0.5796960168060579
0.3046663833733805 0.1200232217338228 0.3377935187271786
0.8765424871790034 0.0391255183404296 0.7094907123247379
0.3353792837816109 0.0753189394710064 0.1141229632681488
0.4994933743251318 0.9396525729900406 0.9238157141341381
0.4688783928287496 0.1471832459915292 0.3896314184371241
0.3004721346440710 0.2133876473260352 0.1808026919064080
0.9478626465058526 0.1824214030890418 0.8200717300558279
0.8882738669763383 0.9256978494497426 0.5138838919003155
0.2737442817640559 0.0368302765857116 0.2655596824659157
0.0556183505535474 0.0353187724075037 0.4693406155595580
0.8121783641950664 0.2129627570492300 0.0225124344988827
0.2009115091931130 0.4215084086525517 0.2891719596549698
0.7680967972920645 0.2451350041904745 0.4284353478734601
0.5171876281820407 -0.0121480379852806 0.4877230030699135
0.0723559216394843 0.1209227409556064 0.5151580792315734
0.3454092453413953 0.1942368311568492 0.3198509070038668
0.9964306685353603 0.1691821013360759 0.5284499663598873
0.7627900152150723 0.3010635232037329 0.1385696408193316
