Al3 Ni15 W6 
1.0
9.8106784710700961e+00 0.0000000000000000e+00 0.0000000000000000e+00 
-5.6694003320783430e-05 5.4340907080407659e+00 0.0000000000000000e+00 
1.3138698812232766e-05 -9.5086157818579931e-02 5.5617907189335583e+00 
Al Ni W 
3 15 6 
Cartesian
   3.2701742269    5.2525877053    2.8116520621
  -0.0000486332    5.2525877053    2.8116520621
   6.5404069244    5.2525877053    2.8116520621
   3.2702012299    2.6709241127    2.8429871911
   1.6351122283    1.2544998321    4.1062089081
   1.6350835855    4.0190355065    4.1976447475
   3.2702073118    2.6478583836    5.5175911681
   1.6350772494    4.0322210318    1.3594073257
   4.9053001361    4.0322210318    1.3594073257
  -0.0000215555    2.6709186786    2.8429871911
   9.8106628960    2.6478583836    5.5175911681
   4.9053351151    1.2544998321    4.1062089081
   6.5404339274    2.6709241127    2.8429871911
   8.1755580019    1.2544998321    4.1062089081
   4.9053064723    4.0190355065    4.1976447475
   8.1755293591    4.0190355065    4.1976447475
   6.5404400092    2.6478583836    5.5175911681
   8.1755230229    4.0322210318    1.3594073257
   1.6351037348    1.4988336174    1.3844020132
   3.2701664604    5.4141486273    0.0272748548
   4.9053266216    1.4988336174    1.3844020132
   9.8106220447    5.4141486244    0.0272750217
   8.1755495084    1.4988336174    1.3844020132
   6.5403991579    5.4141486254    0.0272749661
