Al3 Zr6 Nb6 W9 
1.0
1.0034242834504056e+01 0.0000000000000000e+00 0.0000000000000000e+00 
-1.6153507817268314e-05 6.6281344959705928e+00 0.0000000000000000e+00 
-8.0107003236509887e-06 1.7296317950674291e-02 6.4473563666336871e+00 
Al Zr Nb W 
3 6 6 9 
Cartesian
  -0.0000196128    6.4466560872    3.1772830069
   3.3447246286    6.4466560872    3.1772830069
   6.6894789296    6.4466560872    3.1772830069
  -0.0000079122    3.2504334472    0.0208534584
   3.3447363193    3.2504334472    0.0208534584
   3.3447280780    6.6225734646    0.0395212630
  10.0342266457    6.6225734646    0.0395212630
   6.6894906203    3.2504334472    0.0208534584
   6.6894823789    6.6225734646    0.0395212630
   3.3447315966    3.5698607171    3.2120922839
   1.6723674977    1.6676527668    4.5216986512
   5.0171117644    1.6676527668    4.5216986512
  10.0342301644    3.5698607171    3.2120922839
   6.6894858976    3.5698607171    3.2120922839
   8.3618560312    1.6676527668    4.5216986512
   1.6723630846    4.9577484541    1.6047018682
   1.6723706924    1.6867126626    1.8993138173
   1.6723589722    4.9909238213    4.8665999800
   5.0171073513    4.9577484541    1.6047018682
   5.0171149591    1.6867126626    1.8993138173
   5.0171032390    4.9909238213    4.8665999800
   8.3618516181    4.9577484541    1.6047018682
   8.3618592259    1.6867126626    1.8993138173
   8.3618475057    4.9909238213    4.8665999800
