Al12 W3                                 
   1.00000000000000     
     5.2354225527318183   -0.0112557580239711    0.2607285910176277
     0.8518215856684345    4.9877478044417849    1.5011098692255187
    -0.0049336006241315   -0.0034036314869819    9.2925480205068087
   Al   W 
    12     3
Direct
  0.5124867543065835  0.8542479857281405  0.0000044285324715
  0.1520865698638375  0.4954769555933911  0.0000049949762508
  0.6873994150552714  0.4185629051465982  0.8459245680120249
  0.6874518991702174  0.2644938094587813  0.1540828139975672
  0.2150896903351638  0.3040402693404424  0.7633120703566719
  0.2151550180748589  0.0673283056513499  0.2366754671079611
  0.8068960301341310  0.9430441679502615  0.7527734898026247
  0.8069218797343082  0.6958227349811120  0.2472283207483007
  0.5824868452239736  0.5504538294685505  0.5297054143569636
  0.5824879575917856  0.0801481489985754  0.4702970957335056
  0.0721668525152424  0.2263349231030516  0.5000155532389265
  0.0721680512456758  0.7263539037576197  0.4999764838584323
  0.9924864092570161  0.0093843738863853 -0.0000046801754051
  0.3303458977431812  0.8073941858613308  0.7265389101926369
  0.3303677497487478  0.5339125010744169  0.2734660692610643
 
  0.00000000E+00  0.00000000E+00  0.00000000E+00
  0.00000000E+00  0.00000000E+00  0.00000000E+00
  0.00000000E+00  0.00000000E+00  0.00000000E+00
  0.00000000E+00  0.00000000E+00  0.00000000E+00
  0.00000000E+00  0.00000000E+00  0.00000000E+00
  0.00000000E+00  0.00000000E+00  0.00000000E+00
  0.00000000E+00  0.00000000E+00  0.00000000E+00
  0.00000000E+00  0.00000000E+00  0.00000000E+00
  0.00000000E+00  0.00000000E+00  0.00000000E+00
  0.00000000E+00  0.00000000E+00  0.00000000E+00
  0.00000000E+00  0.00000000E+00  0.00000000E+00
  0.00000000E+00  0.00000000E+00  0.00000000E+00
  0.00000000E+00  0.00000000E+00  0.00000000E+00
  0.00000000E+00  0.00000000E+00  0.00000000E+00
  0.00000000E+00  0.00000000E+00  0.00000000E+00
