POSCAR file written by OVITO Basic 3.9.4
1
7.2496107 0.0 0.0
0.0726501113 7.4714965867 0.0
0.058949395 -0.1309895735 15.7886720033
W Ni Zr Nb Ta 
3 13 7 3 36 
Cartesian
5.48001 1.8989 3.53332
7.30061 1.92777 5.30111
3.73179 5.63154 5.29928
1.95349 7.47712 5.28984
7.24281 1.87926 1.75429
0.0821193 5.57776 1.75241
7.0064656014 4.8629584736 10.643211
4.3899892518 4.9062331273 15.127591
1.4310336967 3.5448539118 11.725351
6.2540336751 1.2106350738 9.26878
6.9085956017 4.7011497898 15.791931
6.56350491 2.587187055 11.367811
0.7450398009 3.3270361059 14.369211
4.6636588331 2.7796076387 12.622641
2.9766286361 0.096170439 9.580682
6.147084206 6.8202247528 14.921691
4.6699749857 0.6134940287 11.143501
4.953402213 6.6656285113 9.560778
6.172470281 5.1751834608 13.209991
0.7802786691 6.5432628712 13.393101
3.358948189 2.4490237075 10.468011
6.7688709688 1.3784063165 13.320961
2.4188232848 4.8165181314 9.736008
4.3377595281 7.2231277608 13.599921
1.0571964128 0.7532678817 15.055591
4.6517654367 5.2262135389 11.556961
0.11648 0.100303 7.05532
0.135388 7.44981 3.5301
0.150562 3.8098 7.0526
7.29105 3.75873 3.53435
3.72163 7.4531 3.5227
3.75266 3.79665 7.05648
3.68343 3.74824 3.52276
1.93894 1.95569 7.05361
1.8725 1.89898 3.53109
1.96418 5.64431 7.05782
1.91561 5.60293 3.52026
5.53321 1.95489 7.05737
5.50237 5.60402 3.53566
1.89709 7.421 1.76988
1.86396 3.72498 1.76698
1.92206 3.77899 5.29157
5.50322 7.42292 1.76336
5.55016 7.47824 5.29216
5.46453 3.72985 1.76652
5.52432 3.78178 5.29956
7.33173 5.63993 5.29654
3.64037 1.8773 1.77082
3.69924 1.92464 5.29551
3.67884 5.56663 1.76324
0.6097526701 6.7183694955 9.37946
5.1791439373 3.6964688739 9.764531
4.1573847847 1.4152368989 15.628311
1.1401465263 1.2745020698 10.867061
2.60992739 6.334306944 14.880831
6.6227998172 6.938738293 11.609951
0.3972110974 2.9291223868 9.05782
2.1792548545 6.3387942305 11.799091
5.4618120116 2.9523169455 14.677551
2.5715851045 3.4713361762 15.437501
2.8815219532 4.1653595818 13.053571
2.6684327782 1.2947563289 13.298751
