fcc_Al12_Cu0_Nb0_Ni0_Ta16_W4_Zr0        
   1.00000000000000     
     8.1426340200006599    0.0000000000000000    0.0000000000000000
    -0.0000000000000000    8.1426340200006599    0.0000000000000000
    -0.0000000000000000   -0.0000000000000000    8.2414153183925833
   Al   Ta   W 
    12    16     4
Direct
  0.4974203906434022  0.4974203906434022  0.0090354301200931
  0.7525796093565978  0.7525796093565978  0.0090354301200931
  0.4974203906434022  0.7525796093565978  0.2409645698799069
  0.7525796093565978  0.4974203906434022  0.2409645698799069
  0.4981063127355962  0.0036212763584742  0.0034372888652863
  0.7518936872644034  0.2463787236415258  0.0034372888652864
  0.4981063127355962  0.2463787236415258  0.2465627111347136
  0.7518936872644034  0.0036212763584742  0.2465627111347136
  0.0036212763584742  0.4981063127355962  0.0034372888652864
  0.2463787236415258  0.7518936872644034  0.0034372888652864
  0.0036212763584742  0.7518936872644034  0.2465627111347136
  0.2463787236415258  0.4981063127355962  0.2465627111347136
  0.5006990187195972  0.5006990187195972  0.4816046404906097
  0.7493009812804028  0.7493009812804028  0.4816046404906097
  0.5006990187195972  0.7493009812804028  0.7683953595093903
  0.7493009812804028  0.5006990187195972  0.7683953595093903
  0.0014537947412820  0.0014537947412820  0.4788023463454499
  0.2485462052587181  0.2485462052587181  0.4788023463454499
  0.0014537947412820  0.2485462052587181  0.7711976536545502
  0.2485462052587181  0.0014537947412820  0.7711976536545502
 -0.0025951748241439  0.5030349470404107  0.4834369825524484
  0.2525951748241439  0.7469650529595893  0.4834369825524484
 -0.0025951748241439  0.7469650529595893  0.7665630174475518
  0.2525951748241439  0.5030349470404107  0.7665630174475518
  0.5030349470404107 -0.0025951748241439  0.4834369825524484
  0.7469650529595893  0.2525951748241439  0.4834369825524484
  0.5030349470404107  0.2525951748241439  0.7665630174475518
  0.7469650529595893 -0.0025951748241439  0.7665630174475518
 -0.0067757994772547 -0.0067757994772547  0.0243572118375768
  0.2567757994772548  0.2567757994772548  0.0243572118375768
 -0.0067757994772547  0.2567757994772548  0.2256427881624233
  0.2567757994772548 -0.0067757994772547  0.2256427881624233
 
  0.00000000E+00  0.00000000E+00  0.00000000E+00
  0.00000000E+00  0.00000000E+00  0.00000000E+00
  0.00000000E+00  0.00000000E+00  0.00000000E+00
  0.00000000E+00  0.00000000E+00  0.00000000E+00
  0.00000000E+00  0.00000000E+00  0.00000000E+00
  0.00000000E+00  0.00000000E+00  0.00000000E+00
  0.00000000E+00  0.00000000E+00  0.00000000E+00
  0.00000000E+00  0.00000000E+00  0.00000000E+00
  0.00000000E+00  0.00000000E+00  0.00000000E+00
  0.00000000E+00  0.00000000E+00  0.00000000E+00
  0.00000000E+00  0.00000000E+00  0.00000000E+00
  0.00000000E+00  0.00000000E+00  0.00000000E+00
  0.00000000E+00  0.00000000E+00  0.00000000E+00
  0.00000000E+00  0.00000000E+00  0.00000000E+00
  0.00000000E+00  0.00000000E+00  0.00000000E+00
  0.00000000E+00  0.00000000E+00  0.00000000E+00
  0.00000000E+00  0.00000000E+00  0.00000000E+00
  0.00000000E+00  0.00000000E+00  0.00000000E+00
  0.00000000E+00  0.00000000E+00  0.00000000E+00
  0.00000000E+00  0.00000000E+00  0.00000000E+00
  0.00000000E+00  0.00000000E+00  0.00000000E+00
  0.00000000E+00  0.00000000E+00  0.00000000E+00
  0.00000000E+00  0.00000000E+00  0.00000000E+00
  0.00000000E+00  0.00000000E+00  0.00000000E+00
  0.00000000E+00  0.00000000E+00  0.00000000E+00
  0.00000000E+00  0.00000000E+00  0.00000000E+00
  0.00000000E+00  0.00000000E+00  0.00000000E+00
  0.00000000E+00  0.00000000E+00  0.00000000E+00
  0.00000000E+00  0.00000000E+00  0.00000000E+00
  0.00000000E+00  0.00000000E+00  0.00000000E+00
  0.00000000E+00  0.00000000E+00  0.00000000E+00
  0.00000000E+00  0.00000000E+00  0.00000000E+00
