bcc_Al15_Cu3_Nb0_Ni0_Ta0_W6_Zr0         
   1.00000000000000     
    10.2264162303225294    0.0000000000000000    0.0000000000000000
     0.0000000000000000    6.0546114671044284   -0.0086792623154310
     0.0000000000000000   -0.0084465097511211    5.8850925532627585
   Al   Cu   W 
    15     3     6
Direct
  0.1666666666666643  0.7572250957587693  0.7538636139553939
  0.5000000000000000  0.7572250957587693  0.7538636139553939
  0.8333333333333357  0.7572250957587693  0.7538636139553939
  0.1666666666666643  0.2327590947126211  0.2334596654658065
  0.5000000000000000  0.2327590947126211  0.2334596654658065
  0.8333333333333357  0.2327590947126211  0.2334596654658065
  0.0000000000000000  0.0013567743144102  0.4958702239685911
  0.3333333333333357  0.0013567743144102  0.4958702239685911
  0.6666666666666643  0.0013567743144102  0.4958702239685911
  0.1666666666666643  0.2482179437703657  0.7731216648205247
  0.5000000000000000  0.2482179437703657  0.7731216648205247
  0.8333333333333357  0.2482179437703657  0.7731216648205247
  0.0000000000000000  0.4949294934576682  0.5054266692812415
  0.3333333333333357  0.4949294934576682  0.5054266692812415
  0.6666666666666643  0.4949294934576682  0.5054266692812415
  0.0000000000000000 -0.0004688564697653 -0.0251312678986484
  0.3333333333333357 -0.0004688564697653 -0.0251312678986484
  0.6666666666666643 -0.0004688564697653 -0.0251312678986484
  0.1666666666666643  0.7515965549354454  0.2535152802013380
  0.5000000000000000  0.7515965549354454  0.2535152802013380
  0.8333333333333357  0.7515965549354455  0.2535152802013380
  0.0000000000000000  0.5143838995204850  0.0098741502057530
  0.3333333333333357  0.5143838995204850  0.0098741502057530
  0.6666666666666643  0.5143838995204850  0.0098741502057530
 
  0.00000000E+00  0.00000000E+00  0.00000000E+00
  0.00000000E+00  0.00000000E+00  0.00000000E+00
  0.00000000E+00  0.00000000E+00  0.00000000E+00
  0.00000000E+00  0.00000000E+00  0.00000000E+00
  0.00000000E+00  0.00000000E+00  0.00000000E+00
  0.00000000E+00  0.00000000E+00  0.00000000E+00
  0.00000000E+00  0.00000000E+00  0.00000000E+00
  0.00000000E+00  0.00000000E+00  0.00000000E+00
  0.00000000E+00  0.00000000E+00  0.00000000E+00
  0.00000000E+00  0.00000000E+00  0.00000000E+00
  0.00000000E+00  0.00000000E+00  0.00000000E+00
  0.00000000E+00  0.00000000E+00  0.00000000E+00
  0.00000000E+00  0.00000000E+00  0.00000000E+00
  0.00000000E+00  0.00000000E+00  0.00000000E+00
  0.00000000E+00  0.00000000E+00  0.00000000E+00
  0.00000000E+00  0.00000000E+00  0.00000000E+00
  0.00000000E+00  0.00000000E+00  0.00000000E+00
  0.00000000E+00  0.00000000E+00  0.00000000E+00
  0.00000000E+00  0.00000000E+00  0.00000000E+00
  0.00000000E+00  0.00000000E+00  0.00000000E+00
  0.00000000E+00  0.00000000E+00  0.00000000E+00
  0.00000000E+00  0.00000000E+00  0.00000000E+00
  0.00000000E+00  0.00000000E+00  0.00000000E+00
  0.00000000E+00  0.00000000E+00  0.00000000E+00
