Converted from final.data
1.0
14.7055216844481613 0.0000000000000000 0.0000000000000000
-0.6502380625110302 31.0198327793103275 0.0000000000000000
-0.0242233285846579 0.1816856871749375 15.1531722370785928
Al Zr Nb Ta Ni Cu
6 6 16 11 13 5
Direct
0.1784253491295619 0.0975116671536166 0.2684665242157876
0.3946148432237175 0.0252716343250640 0.1735375363061831
0.8096821117460993 0.9389194192804304 0.4810844856282320
0.5052994166365981 -0.0208129016895943 0.9916331994749017
0.4235522628518860 0.3507948237231288 -0.0085944213088637
0.3831141661639528 0.2164270131914691 0.3618283838607761
0.0845541871105897 0.0397360025282348 0.1001545181762967
0.2882239024427662 0.0120612985799621 0.8103583828302081
0.4339810964241623 0.0242684827397688 0.3649545987398494
0.1551471800618933 0.4536112578606095 0.3687338444270616
0.2149802025241516 0.2162745572740178 0.0362341773578197
0.1967561791402034 0.1930001623156179 0.3158401607325005
0.3188718983096459 0.2950335301931910 0.1057738127997054
0.5769101600790513 0.0829462345095829 0.4367710893013174
0.4223994954150548 0.2362437524815553 -0.0186325065777142
0.3729815025260370 0.4421220743559189 0.0234334391794179
0.0591768870164889 0.3757285037285069 0.0472612137059935
0.4295120113273351 0.3074759507810459 0.8685069218789709
0.3893847857482974 0.3679053937052777 0.1789907995603784
0.0533047206129960 0.4853509603996943 0.0612290265885384
0.2335770208985474 0.3566522311019764 -0.0115692339354149
0.1063458434518738 0.2489159874338164 0.1922905389585664
0.0512875976443244 0.9645042054442781 0.4585536075365758
0.4404074213291251 -0.0086990666460410 0.5502022348825881
0.3397247206904620 0.1652500621467659 0.7529957906807366
0.3832920109415129 0.2203381724846377 0.1732858198768738
0.5649584796896574 0.2351146945369414 0.2845158119653806
0.3567826210231778 0.9679565833704578 0.6668598174698855
0.9941625710901557 0.1906139358566692 0.1196780058068763
0.3349662369996594 0.1254057770341009 0.3946906545110219
0.3858617911256614 0.0511862401752317 -0.0265665335889651
0.2684168507233207 0.0865339917217336 0.1064181227901971
0.2992603069791767 0.4395067164001280 0.2387635252091543
0.1605897799806267 0.1209087348087039 0.9852703832165148
0.0411687215500829 0.1964371271447308 0.9752847868984121
0.2622920117287104 0.3665251549605379 0.3618586987095425
0.1182320167907600 0.1433131390833835 0.1203754581028064
0.9912881889328222 0.3318107682041396 0.9401206305059479
0.5969949149685342 0.3469926163409084 0.2580306478500993
0.3422496311833826 0.1552310289912977 0.0443516263847935
0.2396023516353468 0.0277829145501366 0.2255707809032741
0.9718016480063285 -0.0123776951504976 0.9212672136372363
0.0457209233240608 0.1480070679975390 0.2710111382815927
0.1057566370091233 0.2930909322510006 0.3561217020307444
0.2154454986986753 0.4280205107174256 0.0946001921072538
0.1782525365672536 0.2348435706098033 0.8929623940088020
0.0336598390247210 0.3234977590840117 0.1864324201618648
0.3571666743843370 0.0829868501213861 0.2619141032426859
0.1353351631359512 0.0624363307827479 0.8445437177389278
0.2944733168062122 0.1511205842111294 0.2027108944215331
0.7139636968994253 0.0317210745655046 0.0834901374478873
0.4026611120282920 0.3149103321719964 0.6858095397346474
0.9329160060550608 0.0915067147887615 0.5524933975977683
0.2440710326001059 -0.0120296360999818 0.0836392264265887
0.1270051976825754 0.1221681557405059 0.4141264399221737
0.9954104243391211 0.9748589697248818 0.1777970998415470
0.7184130333485657 0.1711030656337994 0.0320921366338530
