bcc_Al9_Cu0_Nb6_Ni0_Ta0_W9_Zr0          
   1.00000000000000     
    10.3815646912649306    0.0000000000000000    0.0000000000000000
     0.0000000000000000    6.1450667690541803    0.0083342206284599
     0.0000000000000000    0.0084840473291055    6.0999024768014802
   Al   Nb   W 
     9     6     9
Direct
  0.1666666666666643  0.2486919025336919  0.7572513951119765
  0.5000000000000000  0.2486919025336919  0.7572513951119765
  0.8333333333333357  0.2486919025336919  0.7572513951119765
  0.0000000000000000  0.4987924204547722  0.4978403112445452
  0.3333333333333357  0.4987924204547722  0.4978403112445452
  0.6666666666666643  0.4987924204547722  0.4978403112445452
  0.1666666666666643  0.7489587802712995  0.2424324048591059
  0.5000000000000000  0.7489587802712995  0.2424324048591059
  0.8333333333333357  0.7489587802712995  0.2424324048591059
  0.0000000000000000  0.0017554205768624  0.4960772852716547
  0.3333333333333357  0.0017554205768624  0.4960772852716547
  0.6666666666666643  0.0017554205768624  0.4960772852716547
  0.1666666666666643  0.7444309138360494  0.7507275852762717
  0.5000000000000000  0.7444309138360494  0.7507275852762717
  0.8333333333333357  0.7444309138360494  0.7507275852762717
  0.0000000000000000  0.0030557762789814  0.0042203576772409
  0.3333333333333357  0.0030557762789814  0.0042203576772409
  0.6666666666666643  0.0030557762789814  0.0042203576772409
  0.1666666666666643  0.2578779164615578  0.2507144430755332
  0.5000000000000000  0.2578779164615578  0.2507144430755332
  0.8333333333333357  0.2578779164615578  0.2507144430755332
  0.0000000000000000  0.4964368695867856  0.0007362174836722
  0.3333333333333357  0.4964368695867856  0.0007362174836722
  0.6666666666666643  0.4964368695867856  0.0007362174836722
 
  0.00000000E+00  0.00000000E+00  0.00000000E+00
  0.00000000E+00  0.00000000E+00  0.00000000E+00
  0.00000000E+00  0.00000000E+00  0.00000000E+00
  0.00000000E+00  0.00000000E+00  0.00000000E+00
  0.00000000E+00  0.00000000E+00  0.00000000E+00
  0.00000000E+00  0.00000000E+00  0.00000000E+00
  0.00000000E+00  0.00000000E+00  0.00000000E+00
  0.00000000E+00  0.00000000E+00  0.00000000E+00
  0.00000000E+00  0.00000000E+00  0.00000000E+00
  0.00000000E+00  0.00000000E+00  0.00000000E+00
  0.00000000E+00  0.00000000E+00  0.00000000E+00
  0.00000000E+00  0.00000000E+00  0.00000000E+00
  0.00000000E+00  0.00000000E+00  0.00000000E+00
  0.00000000E+00  0.00000000E+00  0.00000000E+00
  0.00000000E+00  0.00000000E+00  0.00000000E+00
  0.00000000E+00  0.00000000E+00  0.00000000E+00
  0.00000000E+00  0.00000000E+00  0.00000000E+00
  0.00000000E+00  0.00000000E+00  0.00000000E+00
  0.00000000E+00  0.00000000E+00  0.00000000E+00
  0.00000000E+00  0.00000000E+00  0.00000000E+00
  0.00000000E+00  0.00000000E+00  0.00000000E+00
  0.00000000E+00  0.00000000E+00  0.00000000E+00
  0.00000000E+00  0.00000000E+00  0.00000000E+00
  0.00000000E+00  0.00000000E+00  0.00000000E+00
