Converted from final.data
1.0
14.6305355606393661 0.0000000000000000 0.0000000000000000
-0.0234127131273271 15.5717680181225777 0.0000000000000000
-0.1604912444897210 0.2537497245952536 30.0375468082307293
Zr W Ta Ni Cu
10 9 16 2 21
Direct
0.4811351443725754 0.9624557430056115 0.1066168067268765
0.1452277677600880 0.1759261924136276 0.0984880533476169
0.0961449905817045 0.0643259354162584 0.9986379994688585
0.3498541620357906 0.3240599186355380 0.1079446210766834
0.3580551883053496 0.2102479513905612 0.0252357297268188
-0.0140979331127429 0.1326972766608157 0.1716491228402680
0.3446837384889694 -0.0363681252053481 0.2524968642966648
0.2007663818722406 0.9430989850215902 0.3353064196081541
0.3895161747464179 0.1475149459242181 0.4181298264270592
0.9946179603000495 0.9103272346477135 0.1023329695459574
0.3235155649682603 -0.0277287738594956 0.4138186445991056
0.5525189816399263 0.3311302986397591 0.3013079909057466
0.0778243821131672 0.0139992573561386 0.0618715042656268
0.3298012176752090 0.0585597997217098 0.3326558525846631
0.2504990985023303 0.3097570916499673 0.2836252704433764
0.6649520077823579 0.1623369912212996 0.1585738710233614
0.7364550039091083 0.9747174936722874 0.3117507660490361
0.8743498432054085 -0.0140882953067868 0.4547685888411594
0.5646857079470331 -0.0034030648725875 0.0112903459717735
0.1373755965121607 0.3655818469917902 0.0894388794349530
-0.0082832644261599 0.3537732487034196 0.0205465289138222
0.1652000503798468 0.2690146885894795 -0.0026213093237556
0.1023184367914314 0.1973585517956856 0.2540840473696774
-0.0259992183939196 0.0686483663084522 0.2782743347337924
0.9979022507050974 0.4558916062625420 0.9628972876884869
0.2859548071043796 0.5274077900161703 0.1001452852900810
0.1163771533229403 -0.0284469287700057 0.1461849620741372
0.3138040123768349 0.3305400127845878 0.9773740929778537
0.1624589040341140 0.4738747913920148 0.1670550862005895
0.3770350618961081 -0.0121378117148455 0.0126432876304187
0.5492305814456362 0.3365058752810288 0.1575070796265782
0.2353354159652728 0.2896618557265617 0.1865586933814209
0.0288476014482989 0.1560042823913688 0.3652414796782569
0.2185663473937351 0.2024566980123795 0.3516149225370688
0.4184562327166977 0.2957187892100309 0.2357434255720960
0.2503059477776655 0.2495128087130887 0.4318568006942900
0.3595881405320852 0.4191554915140378 0.1724725709170477
0.1818059117639967 0.1156247470876378 0.1795926949788224
0.1126356831753406 0.3119910262717873 0.4035163852719562
0.2655985282328712 0.3605403744554267 0.3737297797502970
0.3491863063140175 0.0478691408709322 0.4985300490314652
0.1474361178909137 0.0640322892555399 0.3039115333584246
0.5077231430930460 0.2151799661475849 0.1023209586625018
0.2866184364219348 0.1615888903200476 0.9857062888164296
-0.0096665426856335 0.2500812434230866 0.9791432761820332
0.4282286652775510 0.0858237408881842 0.0824368377665710
0.0180152439701272 0.1585523922807881 0.0239770502717422
0.3202986314906317 0.1566166578476794 0.1343007649342583
0.3545915177657948 0.0119051217802555 0.1660624907439057
-0.0113597035092510 0.9822329683805051 0.2006502362215224
0.1230584503808648 0.0098568236596207 0.2306295008175864
0.1190410436875790 0.3744321667616263 0.2388212646012829
0.0454542495634135 0.9396563865687096 0.2792014093320697
0.0207173461205035 0.4778842686128367 0.3626726086650526
0.3949531733703574 0.2554485585476468 0.3250210725709499
0.0009120958283100 0.0547445926853960 0.4329561992272974
0.9841913725581770 0.3150783549450433 0.3875243411521664
0.8111622764018251 0.3675904560705773 0.3921339347921138
