Zr6 Ni23
1.0
   0.0000000000000000    5.7135210000000001    5.7135210000000001
   5.7135210000000001    0.0000000000000000    5.7135210000000001
   5.7135210000000001    5.7135210000000001    0.0000000000000000
Zr Ni
6 23
direct
   0.7128669999999990    0.7128669999999990    0.2871329999999990 Zr
   0.2871329999999990    0.7128669999999990    0.2871329999999990 Zr
   0.7128669999999990    0.2871329999999990    0.2871329999999990 Zr
   0.2871329999999990    0.2871329999999990    0.7128669999999990 Zr
   0.7128669999999990    0.2871329999999990    0.7128669999999990 Zr
   0.2871329999999990    0.7128669999999990    0.7128669999999990 Zr
   0.0000000000000000    0.0000000000000000    0.0000000000000000 Ni
   0.0000000000000000    0.0000000000000000    0.5000000000000000 Ni
   0.5000000000000000    0.0000000000000000    0.5000000000000000 Ni
   0.0000000000000000    0.5000000000000000    0.5000000000000000 Ni
   0.5000000000000000    0.5000000000000000    0.0000000000000000 Ni
   0.0000000000000000    0.5000000000000000    0.0000000000000000 Ni
   0.5000000000000000    0.0000000000000000    0.0000000000000000 Ni
   0.8800420000000000    0.8800420000000000    0.3598730000000000 Ni
   0.8800420000000000    0.3598730000000000    0.8800420000000000 Ni
   0.3598730000000000    0.8800420000000000    0.8800420000000000 Ni
   0.8800420000000000    0.8800420000000000    0.8800420000000000 Ni
   0.1199580000000000    0.1199580000000000    0.6401270000000000 Ni
   0.1199580000000000    0.6401270000000000    0.1199580000000000 Ni
   0.6401270000000000    0.1199580000000000    0.1199580000000000 Ni
   0.1199580000000000    0.1199580000000000    0.1199580000000000 Ni
   0.6713560000000000    0.6713560000000000    0.9859310000000000 Ni
   0.6713560000000000    0.9859310000000000    0.6713560000000000 Ni
   0.9859310000000000    0.6713560000000000    0.6713560000000000 Ni
   0.6713560000000000    0.6713560000000000    0.6713560000000000 Ni
   0.3286440000000000    0.3286440000000000    0.0140690000000000 Ni
   0.3286440000000000    0.0140690000000000    0.3286440000000000 Ni
   0.0140690000000000    0.3286440000000000    0.3286440000000000 Ni
   0.3286440000000000    0.3286440000000000    0.3286440000000000 Ni
