Converted from final.data
1.0
30.3629531757953366 0.0000000000000000 0.0000000000000000
0.1853416294274660 15.4536524767949004 0.0000000000000000
-0.4406195179941473 0.0579144261295889 15.9851419160131591
Al W Ni Zr Ta
4 32 7 15 2
Direct
0.0821372522518682 0.1391721163994891 0.3320028217163451
0.1526089937145287 0.3130551625964414 0.9824446362064359
0.1628649228512141 0.1601398353826283 0.0612080236407835
0.6327616363140754 -0.0186808771798647 0.0876080296812241
-0.0177431469474202 0.6485478841447585 0.2003989473123455
0.1118021098600565 0.5998606887817524 0.1231880195039073
0.1832257222031508 0.1665783708602055 0.6092007488286044
0.0420674997806173 0.2788487287861808 0.4437012983054389
-0.0396967346424450 -0.0252128232983254 0.9669227145058006
0.0238940098274265 0.3865950626013482 0.3237874723071832
0.0786511269814105 0.4598142210994594 0.0478571306894539
0.1978404299411289 0.3095225707512321 0.0942097950292760
0.0046605557604447 0.3373872034648712 0.5856012798245971
0.1082615529088407 0.9502235727972095 0.1577357077895028
-0.0374575315589268 0.3113589704912190 0.4489350107459979
0.1642671132258014 -0.0161173598282275 0.0499095723410268
0.0320582993690617 0.5103970812315644 0.1763060000220815
0.3699245035166841 0.5809713265914654 0.1740917401880696
0.3712169833429447 0.2316004182810254 0.3692226271976501
0.3869441682081400 0.1125487599216552 0.2513562928252935
0.4255530307142866 0.2594420584032625 0.4827123540836879
0.4519606557700674 0.1721846521682051 0.1888102125696321
0.3635611656793127 0.1743476874688214 0.9824168162463317
0.3494755913016731 0.1965421068339970 0.0930793904250283
0.2926927684486176 0.1912971936197467 0.2686945135662626
0.0709307291004818 0.9148109634029783 0.4408574693789302
0.3600206842220663 -0.0323940999055363 0.1592551497653097
0.4434440382574300 0.6021720489555321 0.2727662728260596
0.3764477953413801 0.2972128497093088 0.2302373969404965
0.4979462514147046 0.5955368416103132 0.0209450518503992
0.4112090823228091 0.0651507998480961 0.0761449024658638
0.8469306815123089 0.3806327990734688 0.7137863914051321
0.5367135987534861 0.0019558040210464 0.2826213250784717
0.7086919349354200 0.1914938652593167 0.8170633478586640
0.6414680267706631 0.4643029940395185 0.0800357444304775
0.6812060808014105 0.4088060862941933 0.9935824450774061
0.0168199308976683 0.3850908298755291 -0.0143596723629150
0.1922471648315911 0.0212918929197753 0.5323169052833849
0.1179688171497779 0.2911090476021138 0.0788737015711143
0.3131082264331770 0.0386830948143794 0.0304058749240972
0.1942873658810537 0.5899033711394619 0.1652580226972520
0.3099310690906569 0.5160167824265580 0.0824335197424219
0.1166171248823582 0.2026432571131819 0.1987180806114936
0.0819311233973210 0.0200359481011661 -0.0263710314790933
0.3356748173497856 0.2058136427555312 0.5430591309769373
0.2747518711718493 0.6259225059489881 0.2277462136656368
0.2452082141968147 0.9723994761129144 0.1091796144225458
0.7579433965633412 0.6888527228429626 0.1173502771550873
-0.0109746875498808 0.1823993949636145 0.2890299329765380
0.1419749626503525 0.4272969478277004 0.1959409069758113
0.1902159609694243 0.1955627082984813 0.2782812603026182
0.8965254205597992 0.0769401238664591 0.3928918798688683
0.2913557410376891 0.3168332294384034 0.3978439468605070
0.2507584638284481 0.1186781692387338 0.1293071358952345
0.6264098959957338 0.2465092230858506 0.5339212114615650
0.2227522966836815 0.4888816260701380 0.3314140202110049
0.2978552586071547 0.3326538280073798 0.1049788306925640
0.2339149304672737 0.4251980098386819 -0.0378531861079940
0.0401985870292926 0.9000798323170081 0.9529873447516773
0.4160507276129712 0.5484274660509739 0.5066983887147439
