Al4 Zr16 W12 
1.0
9.1920094858874091e+00 0.0000000000000000e+00 0.0000000000000000e+00 
-8.3085085201869349e-09 9.2959721754633282e+00 0.0000000000000000e+00 
8.7930747493073863e-09 -1.6689414650864565e-07 7.1631896113129780e+00 
Al Zr W 
4 16 12 
Cartesian
   2.3034900033    2.1959223575    3.3338344034
   2.3034900079    0.1280658297    5.6201526108
   9.1865218602    0.1280658830    3.3338344034
   9.1865218612    2.1959223043    5.6201526108
   2.3522536095    4.6162681896    1.7625815989
   4.5125321090    0.0768330818    3.4518049731
   2.3519778539    4.4206529612    5.4491744379
   4.5125321095    2.2471617056    5.5021820411
   9.1377582418    4.6162682300    0.0282132968
   4.6712873008    4.5667485070    3.4270561530
   6.9774797548    2.2471617534    3.4518049731
   9.1380340065    4.4206530065    3.5048125762
   6.8187245594    4.5667484581    5.5269308612
   6.9774797592    0.0768330340    5.5021820411
   2.3522536052    7.0036969880    0.0282132968
   2.3519778490    7.1993120495    3.5048125762
   9.1377582418    7.0036969476    1.7625815989
   6.8187245546    7.0532165526    3.4270561530
   9.1380340064    7.1993120042    5.4491744379
   4.6712873011    7.0532165037    5.5269308612
   0.0025836531    2.2646289293    1.5552430756
   2.2954194187    0.0593603237    1.5552430756
   0.0025836167    0.0593604474    0.2355543272
   2.2954194151    2.2646289601    0.2355543272
   4.6019243972    0.0325332026    0.1799206987
   4.6019243970    2.2914571037    1.6108795694
   4.6548427917    4.6075950850    0.1557212953
   6.8351690596    4.6075950505    1.6350768239
   6.8880874585    2.2914571371    0.1799206987
   6.8880874623    0.0325331693    1.6108795694
   4.6548427914    7.0123700926    1.6350768239
   6.8351690556    7.0123701271    0.1557212953
