Al4 Ni16 Cu12 
1.0
7.1583324223565832e+00 0.0000000000000000e+00 0.0000000000000000e+00 
0.0000000000000000e+00 7.1583341985797633e+00 0.0000000000000000e+00 
0.0000000000000000e+00 0.0000000000000000e+00 7.2424535226120410e+00 
Al Ni Cu 
4 16 12 
Cartesian
   3.4663652089    3.4663660690    3.5509532348
   5.4815503191    5.4815516792    3.5509532348
   3.4663652089    5.4815516792    5.5021136685
   5.4815503191    3.4663660690    5.5021136685
   7.1564712559    3.6048010941    3.6250652617
   1.7914442720    5.3431166542    3.6250652617
   7.1564712559    5.3431166542    5.4280016416
   1.7914442720    3.6048010941    5.4280016416
   3.5953583591    0.0304479745    0.0102609633
   5.3525571688    1.7591319960    0.0102610357
   3.5953583591    1.7591319960    1.8003508240
   5.3525571688    0.0304481177    1.8003508240
   3.6048001996    7.1564730317    3.6250652617
   5.3431153284    1.7914447165    3.6250652617
   3.6048001996    1.7914447165    5.4280016416
   5.3431153284    7.1564730317    5.4280016416
   0.0304481817    3.5953592512    0.0102611082
   1.7591315595    5.3525584970    0.0102611082
   0.0304481817    5.3525584970    1.8003508240
   1.7591315595    3.5953592512    1.8003508240
   3.5674838127    3.5674846979    0.0034482987
   5.3804317153    5.3804330503    0.0034481611
   3.5674838127    5.3804330503    1.8071659728
   5.3804317153    3.5674846979    1.8071659728
   0.0270479738    0.0270480521    3.6090521969
   1.7625317674    1.7625322047    3.6090521969
   0.0270481170    1.7625322047    5.4440147063
   1.7625317674    0.0270479805    5.4440147063
   7.1451324574    7.1451342303    0.0083269385
   1.8027830706    1.8027835179    0.0083268661
   7.1451324574    1.8027835179    1.8022845591
   1.8027830706    7.1451342303    1.8022845591
