Nb1 Al1 Ni2                             
   1.00000000000000     
     3.6687020420791954   -0.0000000000176970    2.1181258866322832
     1.2229006773263620    3.4588859425264640    2.1181258866322832
     0.0000000000000000    0.0000000000000000    4.2362517732645664
   Nb   Al   Ni
     1     1     2
Direct
  0.5000000000000000  0.5000000000000000  0.5000000000000000
  0.0000000000000000  0.0000000000000000 -0.0000000000000000
  0.2500000000000000  0.2500000000000000  0.2500000000000000
  0.7500000000000000  0.7500000000000000  0.7500000000000000
 
  0.00000000E+00  0.00000000E+00  0.00000000E+00
  0.00000000E+00  0.00000000E+00  0.00000000E+00
  0.00000000E+00  0.00000000E+00  0.00000000E+00
  0.00000000E+00  0.00000000E+00  0.00000000E+00
