Ni6 Cu6 Nb12 
1.0
9.7447699288580125e+00 0.0000000000000000e+00 0.0000000000000000e+00 
1.4224571517596182e-04 4.2823127809680148e+00 0.0000000000000000e+00 
-2.7785278348965107e-04 -3.9092572969277636e-02 8.6213332210808176e+00 
Ni Cu Nb 
6 6 12 
Cartesian
   0.2989174274    2.5789345358    2.2293905576
   2.9493662171    2.5789345358    2.2293905576
   1.6240737363    2.5828297219    4.4774549230
   1.6239287395    2.1004472310    8.4980912627
   0.0183427670    2.5912432940    6.4382995722
   3.2296763467    2.5912432940    6.4382995722
   1.6240838520    0.4700927287    1.9743456570
   4.5095746675    2.3680141552    0.1081115186
   6.4965362536    2.4930399483    1.9668364757
   8.4835990369    2.3680141591    0.1081106565
   0.2895316728    4.1975368705    8.6014179413
   2.9584536229    4.1975368705    8.6014179413
   0.0908486928    0.4338212416    4.2296519423
   3.1571646993    0.4338212416    4.2296519423
   4.5321237394    0.3889141645    2.0180816804
   4.8438688923    2.5511727223    4.2503258993
   6.4965207336    0.3091825972    0.1892494719
   8.4607959494    0.3889145536    2.0180903017
   8.1490512330    2.5511727223    4.2503258993
   6.4963950052    0.3981934863    4.2008911746
   1.6239411758    0.4943979261    6.4473174867
   4.7921611262    0.3880314887    6.6300121590
   8.2004723669    0.3880310604    6.6300121590
   6.4963852855    2.5105096521    6.6912236249
