fcc_Al0_Cu12_Nb4_Ni8_Ta0_W8_Zr0         
   1.00000000000000     
     7.9437313961362044   -0.0000000000000000   -0.0000000000000000
    -0.0000000000000000    6.9168611916973139    0.0000000000000000
    -0.0000000000000000   -0.0000000000000000    7.9437313961362044
   Cu   Nb   Ni   W 
    12     4     8     8
Direct
  0.0007923292392803 -0.0025577222083102  0.5134268276116412
  0.2492076707607198  0.2525577222083102  0.5134268276116412
  0.0007923292392803  0.2525577222083102  0.7365731723883588
  0.2492076707607198 -0.0025577222083102  0.7365731723883588
  0.4975343434540219  0.5218001858070890  0.4975343434540219
  0.7524656565459781  0.7281998141929110  0.4975343434540219
  0.4975343434540219  0.7281998141929110  0.7524656565459781
  0.7524656565459781  0.5218001858070890  0.7524656565459781
  0.5134268276116412 -0.0025577222083102  0.0007923292392803
  0.7365731723883588  0.2525577222083102  0.0007923292392803
  0.5134268276116412  0.2525577222083102  0.2492076707607198
  0.7365731723883588 -0.0025577222083102  0.2492076707607198
 -0.0111448648613142  0.4995943887093094 -0.0111448648613142
  0.2611448648613142  0.7504056112906906 -0.0111448648613142
 -0.0111448648613142  0.7504056112906906  0.2611448648613142
  0.2611448648613142  0.4995943887093094  0.2611448648613142
  0.0029265483219291  0.4999428576282071  0.5090589879027658
  0.2470734516780710  0.7500571423717930  0.5090589879027658
  0.0029265483219291  0.7500571423717930  0.7409410120972342
  0.2470734516780710  0.4999428576282071  0.7409410120972342
  0.5090589879027658  0.4999428576282071  0.0029265483219291
  0.7409410120972342  0.7500571423717930  0.0029265483219291
  0.5090589879027658  0.7500571423717930  0.2470734516780710
  0.7409410120972342  0.4999428576282071  0.2470734516780710
 -0.0080082964927407  0.0025902007686525 -0.0080082964927407
  0.2580082964927407  0.2474097992313474 -0.0080082964927407
 -0.0080082964927407  0.2474097992313474  0.2580082964927408
  0.2580082964927407  0.0025902007686525  0.2580082964927407
  0.5064684955948368 -0.0131680984198771  0.5064684955948368
  0.7435315044051632  0.2631680984198772  0.5064684955948368
  0.5064684955948368  0.2631680984198772  0.7435315044051632
  0.7435315044051632 -0.0131680984198771  0.7435315044051632
 
  0.00000000E+00  0.00000000E+00  0.00000000E+00
  0.00000000E+00  0.00000000E+00  0.00000000E+00
  0.00000000E+00  0.00000000E+00  0.00000000E+00
  0.00000000E+00  0.00000000E+00  0.00000000E+00
  0.00000000E+00  0.00000000E+00  0.00000000E+00
  0.00000000E+00  0.00000000E+00  0.00000000E+00
  0.00000000E+00  0.00000000E+00  0.00000000E+00
  0.00000000E+00  0.00000000E+00  0.00000000E+00
  0.00000000E+00  0.00000000E+00  0.00000000E+00
  0.00000000E+00  0.00000000E+00  0.00000000E+00
  0.00000000E+00  0.00000000E+00  0.00000000E+00
  0.00000000E+00  0.00000000E+00  0.00000000E+00
  0.00000000E+00  0.00000000E+00  0.00000000E+00
  0.00000000E+00  0.00000000E+00  0.00000000E+00
  0.00000000E+00  0.00000000E+00  0.00000000E+00
  0.00000000E+00  0.00000000E+00  0.00000000E+00
  0.00000000E+00  0.00000000E+00  0.00000000E+00
  0.00000000E+00  0.00000000E+00  0.00000000E+00
  0.00000000E+00  0.00000000E+00  0.00000000E+00
  0.00000000E+00  0.00000000E+00  0.00000000E+00
  0.00000000E+00  0.00000000E+00  0.00000000E+00
  0.00000000E+00  0.00000000E+00  0.00000000E+00
  0.00000000E+00  0.00000000E+00  0.00000000E+00
  0.00000000E+00  0.00000000E+00  0.00000000E+00
  0.00000000E+00  0.00000000E+00  0.00000000E+00
  0.00000000E+00  0.00000000E+00  0.00000000E+00
  0.00000000E+00  0.00000000E+00  0.00000000E+00
  0.00000000E+00  0.00000000E+00  0.00000000E+00
  0.00000000E+00  0.00000000E+00  0.00000000E+00
  0.00000000E+00  0.00000000E+00  0.00000000E+00
  0.00000000E+00  0.00000000E+00  0.00000000E+00
  0.00000000E+00  0.00000000E+00  0.00000000E+00
