Al1 Cu3
1.0
   3.5370773099999999    0.0000000000000000    2.0421323700000000
   1.1790264399999999    3.3347876799999998    2.0421323700000000
   0.0000000000000000    0.0000000000000000    4.0842637399999999
Al Cu
1 3
direct
   0.0000000000000000    0.0000000000000000    0.0000000000000000 Al
   0.5000000000000000    0.5000000000000000    0.5000000000000000 Cu
   0.2500000000000000    0.2500000000000000    0.2500000000000000 Cu
   0.7500000000000000    0.7500000000000000    0.7500000000000000 Cu
