Ni3 Cu3 Nb6 Ta6 W6 
1.0
9.9735085390046390e+00 0.0000000000000000e+00 0.0000000000000000e+00 
7.3443231978628779e-09 4.4078660503754703e+00 0.0000000000000000e+00 
2.8019914502900548e-09 3.4436455817188693e-06 8.6954601229443682e+00 
Ni Cu Nb Ta W 
3 3 6 6 6 
Cartesian
   0.1665157059    0.3660221308    4.4180502475
   1.6622547504    0.3694623936    6.4507097013
   3.1579917988    0.3660225715    4.4180502475
   4.8653766732    0.3681395619    6.3721288282
   6.6490090192    0.3668283426    4.4511538642
   8.4326313929    0.3681395619    6.3721375236
   1.6622547490    0.3668521614    2.2662977718
   4.8573380284    2.5706516057    4.4356324679
   0.0488588254    0.3674946821    8.5753845141
   3.2756393069    0.3674933597    8.5753845141
   8.4406700438    2.5706516057    4.4356324679
   6.6490090235    2.5720320645    6.4473097764
   4.9165008767    0.3669949831    2.2837582558
   6.6490090222    2.5709901469    2.2526632904
   8.3815071868    0.3669949831    2.2837582558
   4.9357796744    2.5713805723    8.6491046250
   8.3622284005    2.5713761644    8.6491046250
   6.6490090206    0.3674647204    8.6051490741
   0.0557617915    2.5709019841    2.2389070725
   3.2687476141    2.5708975763    2.2389070725
   1.6622547547    2.5713188631    8.6514958766
   0.1222433058    2.5724199640    6.4656050245
   1.6622547534    2.5700609495    4.4299717233
   3.2022542340    2.5724199640    6.4656050245
