bcc_Al3_Cu3_Nb0_Ni6_Ta3_W6_Zr3          
   1.00000000000000     
     9.6951381826120606    0.0000000000000000    0.0000000000000000
     0.0000000000000000    6.2223451180091995    0.0052523034330600
     0.0000000000000000    0.0057965173243930    6.0447957463068782
   Al   Cu   Ni   Ta   W    Zr
     3     3     6     3     6     3
Direct
  0.1666666666666643  0.7888455469612466  0.7516037986547286
  0.5000000000000000  0.7888455469612466  0.7516037986547286
  0.8333333333333357  0.7888455469612468  0.7516037986547286
  0.1666666666666643  0.2163377189700739  0.7552742681135465
  0.5000000000000000  0.2163377189700739  0.7552742681135465
  0.8333333333333357  0.2163377189700739  0.7552742681135465
  0.0000000000000000  0.0042126731798651 -0.0027003003319440
  0.3333333333333357  0.0042126731798651 -0.0027003003319440
  0.6666666666666643  0.0042126731798651 -0.0027003003319440
  0.0000000000000000  0.0112029476361984  0.4992425804352666
  0.3333333333333357  0.0112029476361984  0.4992425804352666
  0.6666666666666643  0.0112029476361984  0.4992425804352666
  0.0000000000000000  0.4783462466288665  0.5202652651646403
  0.3333333333333357  0.4783462466288665  0.5202652651646403
  0.6666666666666643  0.4783462466288665  0.5202652651646403
  0.0000000000000000  0.4836582713762312 -0.0115017149658800
  0.3333333333333357  0.4836582713762311 -0.0115017149658800
  0.6666666666666643  0.4836582713762311 -0.0115017149658800
  0.1666666666666643  0.2497181525021047  0.2378907762684084
  0.5000000000000000  0.2497181525021047  0.2378907762684084
  0.8333333333333357  0.2497181525021047  0.2378907762684084
  0.1666666666666643  0.7676784427454136  0.2499253266612330
  0.5000000000000000  0.7676784427454136  0.2499253266612330
  0.8333333333333357  0.7676784427454136  0.2499253266612330
 
  0.00000000E+00  0.00000000E+00  0.00000000E+00
  0.00000000E+00  0.00000000E+00  0.00000000E+00
  0.00000000E+00  0.00000000E+00  0.00000000E+00
  0.00000000E+00  0.00000000E+00  0.00000000E+00
  0.00000000E+00  0.00000000E+00  0.00000000E+00
  0.00000000E+00  0.00000000E+00  0.00000000E+00
  0.00000000E+00  0.00000000E+00  0.00000000E+00
  0.00000000E+00  0.00000000E+00  0.00000000E+00
  0.00000000E+00  0.00000000E+00  0.00000000E+00
  0.00000000E+00  0.00000000E+00  0.00000000E+00
  0.00000000E+00  0.00000000E+00  0.00000000E+00
  0.00000000E+00  0.00000000E+00  0.00000000E+00
  0.00000000E+00  0.00000000E+00  0.00000000E+00
  0.00000000E+00  0.00000000E+00  0.00000000E+00
  0.00000000E+00  0.00000000E+00  0.00000000E+00
  0.00000000E+00  0.00000000E+00  0.00000000E+00
  0.00000000E+00  0.00000000E+00  0.00000000E+00
  0.00000000E+00  0.00000000E+00  0.00000000E+00
  0.00000000E+00  0.00000000E+00  0.00000000E+00
  0.00000000E+00  0.00000000E+00  0.00000000E+00
  0.00000000E+00  0.00000000E+00  0.00000000E+00
  0.00000000E+00  0.00000000E+00  0.00000000E+00
  0.00000000E+00  0.00000000E+00  0.00000000E+00
  0.00000000E+00  0.00000000E+00  0.00000000E+00
