Converted from final.data
1.0
30.2501074055389054 0.0000000000000000 0.0000000000000000
0.1840331821380058 15.3962180333487240 0.0000000000000000
-0.4375088978070698 0.0575055704713980 15.9257321595994359
Al W Ni Zr Ta
4 32 7 15 2
Direct
0.2815676195891274 0.2170955700129484 0.3190535652725169
0.9017661383956259 0.3757056068589227 0.0153097576417662
0.8231868302228647 0.2728671842839705 0.3037318905828322
0.7160132858714836 0.2811201022192667 0.2445876170064347
0.1612780026181257 0.0859020920203997 0.1546007422029639
0.1609869946212344 0.1515057120988628 0.0050015360319591
0.9141474129237209 0.2128163944357200 0.3008721696820568
0.0545315882102059 0.4307386969569471 -0.0491464257374819
0.1419911345329610 0.3860882412734154 0.2642999872421760
0.0950537340439998 0.1883956775935637 0.2421582993300389
0.0743858216804103 0.1327082264459655 0.0684267589600774
0.0071196804519573 0.2477809810949830 0.1977602691819490
0.0093213654144030 0.2926038257426927 0.0101815410418383
-0.0256097842284855 0.4376922080310570 0.2542074037201203
0.0078240021619794 0.3784926192725954 0.8824153638926889
0.1935200483813961 0.2415518851986511 0.2705484290423772
0.0442352176995839 0.9917338075814945 0.0798392157501024
0.0068408419614123 0.0325369079904438 0.2025948984770178
-0.0383820762884484 0.2880977920588634 0.3144335696124668
0.1854267552746655 0.9167832744163359 0.0152584462444719
0.0406462032717888 0.3914169732470342 0.1702194110124896
0.1312238861139917 -0.0029612363537448 0.0351337586384410
0.0214147601920875 0.1581922417531201 0.3198201694583821
0.1045629583738439 0.3005292100093537 0.1383241649535779
0.3326236175486773 0.0630247536669232 0.2868696814175618
0.5008208215159748 0.2101318335077880 0.0736834476146603
0.5454207377223184 0.3997833042568636 0.5440122189050781
0.3900930946865847 0.3568265845745281 0.1271049660723591
0.1655172540156065 0.0668662237759779 0.3227424588309894
0.4587876867231330 0.2513284549622554 0.2168234633820531
0.4762431251382289 0.0656022268098409 0.1819458970815399
0.5493599904067266 0.1708698226407321 0.2619350837143804
0.3016820686143756 0.1141616848366261 0.0008550863579573
0.1199991668406715 0.5220366875117699 0.2932691884368578
0.4156803475122358 0.9912967257177300 0.0447358721407526
0.2067302454308077 0.5084115600975178 0.2260799872785932
0.1497107396436076 0.0802608624645694 0.7759726226321516
0.1959099202942070 0.0137163546029120 0.4887420760303625
0.1194593736656680 0.3188383835043074 0.6501823260794085
0.3579378991267718 0.5103704898279958 0.5867400562817925
0.2438073731189221 0.1078673422362331 0.5945164121750294
0.9917428206028968 -0.0119506867170857 0.6021532571914149
0.2718020847555494 0.2613458505964139 0.5230968784357120
0.4015384860239130 0.4698467171504074 0.4371358530233944
0.3247627904641389 0.2198694621430151 0.1556767805236136
0.1259348143348281 0.2862301557626237 0.4141241954504362
0.9745727769002860 0.3079338390634422 0.1154603695057650
0.2336742116987943 0.3568903964840056 0.3952258236757483
0.3564753723942476 0.3200329997178048 0.5042113831468191
0.5073279794737396 0.3653766366766012 0.4000703004255191
0.3953298481893430 0.3966949352171708 0.6901874561273242
0.0689177779418769 0.3463638949389507 0.3365026267942298
0.3771103313532344 0.2350998086563107 0.3374838263250672
0.3494358544875930 0.2871027970932633 -0.0340498149293101
0.2044818160467287 0.1885134085987829 0.4434240323544357
0.4032667418760145 0.1496241241231614 0.0807359177297580
0.3585027027924347 0.4281080245799442 0.2630489973225416
0.9189429115717298 0.1428472709496257 0.1242479273779241
0.6029982187334156 0.2957300697979792 0.7700946957873398
0.7072138453590042 0.4069720166267787 0.3611722752833452
