Al3 Cu12 Nb6 W3 
1.0
1.0760962037046484e+01 0.0000000000000000e+00 0.0000000000000000e+00 
2.3597308475625919e-04 5.6927207974078309e+00 0.0000000000000000e+00 
2.2660513450976821e-04 1.3261244438409600e-02 5.6557202675183316e+00 
Al Cu Nb W 
3 12 6 3 
Cartesian
   1.7936171525    1.4819374554    1.4627163099
   5.3806009112    1.4819374554    1.4627163099
   8.9675846699    1.4819374554    1.4627163099
   1.7938384359    4.1838233849    4.1969516504
   3.5870996678    0.1037806676    2.7923195876
   3.5872178370    2.8528021536    2.8978383606
   0.0001157651    2.7906577617    0.0002712235
   3.5870994471    2.7906577618    0.0002712874
   5.3808221946    4.1838233849    4.1969516504
  10.7611961153    2.8528021536    2.8978383606
   0.0001159906    0.1037806676    2.7923195876
   8.9678059533    4.1838233849    4.1969516504
   7.1740941874    0.1037806676    2.7923195876
   7.1742123566    2.8528021536    2.8978383606
   7.1740939668    2.7906577615    0.0002711573
   3.5874392940    5.6456857633    5.5420459459
   1.7937341543    4.3037300471    1.4635590122
  10.7614175724    5.6456857633    5.5420459459
   5.3807179130    4.3037300471    1.4635590122
   7.1744338137    5.6456857633    5.5420459459
   8.9677016717    4.3037300471    1.4635590122
   1.7937283979    1.4615069351    4.2671730732
   5.3807121566    1.4615069351    4.2671730732
   8.9676959153    1.4615069351    4.2671730732
