Zr4 Al2                                 
   1.00000000000000     
     4.9058401685603394   -0.0000000114755787   -0.0000000000000000
    -2.4529211018034625    4.2485824806629182    0.0000000000000000
    -0.0000000000000000    0.0000000000000000    5.9349732976391056
   Zr   Al
     4     2
Direct
  0.0000000000000000 -0.0000000000000000  0.0000000000000000
  0.0000000000000000 -0.0000000000000000  0.5000000000000000
  0.3333330000000032  0.6666669999999968  0.7500000000000000
  0.6666669999999968  0.3333330000000032  0.2500000000000000
  0.3333330000000032  0.6666669999999968  0.2500000000000000
  0.6666669999999968  0.3333330000000032  0.7500000000000000
 
  0.00000000E+00  0.00000000E+00  0.00000000E+00
  0.00000000E+00  0.00000000E+00  0.00000000E+00
  0.00000000E+00  0.00000000E+00  0.00000000E+00
  0.00000000E+00  0.00000000E+00  0.00000000E+00
  0.00000000E+00  0.00000000E+00  0.00000000E+00
  0.00000000E+00  0.00000000E+00  0.00000000E+00
