Cu2 Zr2 
1.0
4.2092588603334979e+00 0.0000000000000000e+00 0.0000000000000000e+00 
4.1834515557027664e-08 3.2234320809568060e+00 0.0000000000000000e+00 
7.1315944617359312e-08 1.6089214125364384e+00 5.1908584509727866e+00 
Cu Zr 
2 2 
Cartesian
   3.1569442299    4.0283053054    3.3320224214
   1.0523147436    0.8040478658    1.8588360296
   3.1569441863    2.4167726230    0.9976622308
   1.0523147872    2.4155808705    4.1931962201
