fcc_Al12_Cu4_Nb8_Ni0_Ta4_W0_Zr4         
   1.00000000000000     
     8.1322093502160904    0.0000000000000000    0.0000000000000000
     0.0000000000000000    8.4438696289021262    0.0000000000000000
     0.0000000000000000    0.0000000000000000    8.0653638976179689
   Al   Cu   Nb   Ta   Zr
    12     4     8     4     4
Direct
  0.4995546334543081  0.0043176210419200  0.5044671973543182
  0.7504453665456918  0.2456823789580800  0.5044671973543182
  0.4995546334543081  0.2456823789580800  0.7455328026456818
  0.7504453665456918  0.0043176210419200  0.7455328026456818
 -0.0138324752968207  0.0064360388857453  0.0106519751469713
  0.2638324752968207  0.2435639611142547  0.0106519751469713
 -0.0138324752968207  0.2435639611142547  0.2393480248530287
  0.2638324752968207  0.0064360388857453  0.2393480248530287
 -0.0190260518936413  0.4949740902576333  0.0152260124393133
  0.2690260518936412  0.7550259097423667  0.0152260124393133
 -0.0190260518936413  0.7550259097423667  0.2347739875606867
  0.2690260518936412  0.4949740902576333  0.2347739875606867
  0.5024093115696817  0.5053129719111883  0.0224772020823108
  0.7475906884303183  0.7446870280888117  0.0224772020823108
  0.5024093115696817  0.7446870280888117  0.2275227979176892
  0.7475906884303183  0.5053129719111883  0.2275227979176892
 -0.0045403292108116  0.0065940940261361  0.4799133048018028
  0.2545403292108117  0.2434059059738639  0.4799133048018028
 -0.0045403292108116  0.2434059059738639  0.7700866951981969
  0.2545403292108117  0.0065940940261361  0.7700866951981969
  0.5167625524517918  0.4927477260089634  0.4853120407123830
  0.7332374475482082  0.7572522739910369  0.4853120407123830
  0.5167625524517918  0.7572522739910369  0.7646879592876172
  0.7332374475482082  0.4927477260089634  0.7646879592876172
  0.5111937919072644  0.0028466161292747 -0.0030526786372763
  0.7388062080927356  0.2471533838707253 -0.0030526786372763
  0.5111937919072644  0.2471533838707253  0.2530526786372763
  0.7388062080927356  0.0028466161292747  0.2530526786372763
 -0.0102126934020100  0.4964315392070700  0.4775889960325301
  0.2602126934020100  0.7535684607929303  0.4775889960325301
 -0.0102126934020100  0.7535684607929303  0.7724110039674701
  0.2602126934020100  0.4964315392070700  0.7724110039674701
 
  0.00000000E+00  0.00000000E+00  0.00000000E+00
  0.00000000E+00  0.00000000E+00  0.00000000E+00
  0.00000000E+00  0.00000000E+00  0.00000000E+00
  0.00000000E+00  0.00000000E+00  0.00000000E+00
  0.00000000E+00  0.00000000E+00  0.00000000E+00
  0.00000000E+00  0.00000000E+00  0.00000000E+00
  0.00000000E+00  0.00000000E+00  0.00000000E+00
  0.00000000E+00  0.00000000E+00  0.00000000E+00
  0.00000000E+00  0.00000000E+00  0.00000000E+00
  0.00000000E+00  0.00000000E+00  0.00000000E+00
  0.00000000E+00  0.00000000E+00  0.00000000E+00
  0.00000000E+00  0.00000000E+00  0.00000000E+00
  0.00000000E+00  0.00000000E+00  0.00000000E+00
  0.00000000E+00  0.00000000E+00  0.00000000E+00
  0.00000000E+00  0.00000000E+00  0.00000000E+00
  0.00000000E+00  0.00000000E+00  0.00000000E+00
  0.00000000E+00  0.00000000E+00  0.00000000E+00
  0.00000000E+00  0.00000000E+00  0.00000000E+00
  0.00000000E+00  0.00000000E+00  0.00000000E+00
  0.00000000E+00  0.00000000E+00  0.00000000E+00
  0.00000000E+00  0.00000000E+00  0.00000000E+00
  0.00000000E+00  0.00000000E+00  0.00000000E+00
  0.00000000E+00  0.00000000E+00  0.00000000E+00
  0.00000000E+00  0.00000000E+00  0.00000000E+00
  0.00000000E+00  0.00000000E+00  0.00000000E+00
  0.00000000E+00  0.00000000E+00  0.00000000E+00
  0.00000000E+00  0.00000000E+00  0.00000000E+00
  0.00000000E+00  0.00000000E+00  0.00000000E+00
  0.00000000E+00  0.00000000E+00  0.00000000E+00
  0.00000000E+00  0.00000000E+00  0.00000000E+00
  0.00000000E+00  0.00000000E+00  0.00000000E+00
  0.00000000E+00  0.00000000E+00  0.00000000E+00
