Al1 Ni1
1.0
  -1.9386939999999999   -1.3811140000000000    1.3811140000000000
  -1.9386939999999999    1.3811140000000000   -1.3811140000000000
   0.0000000000000000   -2.1916280000000001   -2.1916280000000001
Al Ni
1 1
direct
   0.0000000000000000    0.0000000000000000    0.0000000000000000 Al
   0.5000000000000000    0.5000000000000000    0.5000000000000000 Ni
