Zr3 Al3 Ni3                             
   1.00000000000000     
     6.9159653637906571    0.0000000035940056   -0.0000000000000000
    -3.4579821656739260    5.9894017479459691    0.0000000000000000
    -0.0000000000000000    0.0000000000000000    3.4926153301712746
   Zr   Al   Ni
     3     3     3
Direct
  0.5915972683079562  0.0000000000000362  0.5000000000000000
  0.4084027316920226  0.4084027316920374  0.5000000000000000
  0.0000000000000213  0.5915972683079265  0.5000000000000000
  0.2494809518728977  0.0000000000003136  0.0000000000000000
  0.7505190481269177  0.7505190481270470  0.0000000000000000
  0.0000000000001845  0.2494809518726395 -0.0000000000000000
  0.0000000000000000  0.0000000000000000  0.5000000000000000
  0.3333330000000032  0.6666669999999968 -0.0000000000000000
  0.6666669999999968  0.3333330000000032  0.0000000000000000
 
  0.00000000E+00  0.00000000E+00  0.00000000E+00
  0.00000000E+00  0.00000000E+00  0.00000000E+00
  0.00000000E+00  0.00000000E+00  0.00000000E+00
  0.00000000E+00  0.00000000E+00  0.00000000E+00
  0.00000000E+00  0.00000000E+00  0.00000000E+00
  0.00000000E+00  0.00000000E+00  0.00000000E+00
  0.00000000E+00  0.00000000E+00  0.00000000E+00
  0.00000000E+00  0.00000000E+00  0.00000000E+00
  0.00000000E+00  0.00000000E+00  0.00000000E+00
