Al15 Nb9 
1.0
8.4326293486306074e+00 0.0000000000000000e+00 0.0000000000000000e+00 
-7.9841143669600315e-06 5.0402028947956063e+00 0.0000000000000000e+00 
-5.7699055773925570e-04 6.4074420161096865e-02 9.4591903271772235e+00 
Al Nb 
15 9 
Cartesian
   1.4054232678    2.4607370154    0.0891529634
   2.8031785352    3.4325666400    2.3359470513
   4.1918600198    0.8401683913    2.3292310262
   0.0074107292    3.4325666400    2.3359470513
   5.6216089758    3.3854555996    2.3180502632
   5.6217525857    0.0682723959    0.0494550118
   7.0513561988    0.8401684554    2.3292404854
   1.4050062816    0.9020955407    7.1051856815
   2.8556303375    5.0280151393    4.7694467324
   4.2222050859    2.4956662744    0.0007043143
   7.0212899086    2.4956612480    0.0007063537
   8.3872834029    5.0280151393    4.7694467324
   4.2446473406    0.9624816082    7.0425942192
   5.6214568749    4.9930064883    4.7702791412
   6.9979935819    0.9624816082    7.0425942192
   1.4052852889    0.9370211866    2.5294253302
   1.4051421936    2.5976951356    4.6943407612
   4.2159634978    2.4503832650    4.5884072888
   7.0269636259    2.4503883052    4.5884072888
   2.8540394553    5.0505082654    9.4227062301
   2.8170348880    3.4108014505    7.1506276319
   8.3882982031    5.0505032252    9.4227062301
   8.4255935331    3.4107964103    7.1506276319
   5.6213100239    3.5420215163    7.2158676676
