Al10 W2                                 
   1.00000000000000     
     4.9106656311537549   -0.0000000055861568   -0.0000000000000000
    -2.4553333252418335    4.2527616371540322   -0.0000000000000000
    -0.0000000000000000    0.0000000000000000    8.8845341777363540
   Al   W 
    10     2
Direct
  0.0000000000000000  0.0000000000000000 -0.0000000000000000
  0.0000000000000000  0.0000000000000000  0.5000000000000000
  0.3333330000000032  0.6666669999999968  0.0000000000000000
  0.6666669999999968  0.3333330000000032  0.5000000000000000
  0.3380472255620771  0.3380472255619992  0.2500000000000000
 -0.0000000000000158  0.3380472255619372  0.7500000000000000
  0.3380472255620928  0.0000000000000620  0.7500000000000000
  0.6619527744379071 -0.0000000000000620  0.2500000000000000
  0.0000000000000158  0.6619527744380628  0.2500000000000000
  0.6619527744379229  0.6619527744380007  0.7500000000000000
  0.3333330000000032  0.6666669999999968  0.5000000000000000
  0.6666669999999968  0.3333330000000032 -0.0000000000000000
 
  0.00000000E+00  0.00000000E+00  0.00000000E+00
  0.00000000E+00  0.00000000E+00  0.00000000E+00
  0.00000000E+00  0.00000000E+00  0.00000000E+00
  0.00000000E+00  0.00000000E+00  0.00000000E+00
  0.00000000E+00  0.00000000E+00  0.00000000E+00
  0.00000000E+00  0.00000000E+00  0.00000000E+00
  0.00000000E+00  0.00000000E+00  0.00000000E+00
  0.00000000E+00  0.00000000E+00  0.00000000E+00
  0.00000000E+00  0.00000000E+00  0.00000000E+00
  0.00000000E+00  0.00000000E+00  0.00000000E+00
  0.00000000E+00  0.00000000E+00  0.00000000E+00
  0.00000000E+00  0.00000000E+00  0.00000000E+00
