Al2 Ni4                                 
   1.00000000000000     
    -1.9870015999999999   -3.4415873200000000    0.0000000000000000
    -1.9870015999999999    3.4415873200000000    0.0000000000000000
     0.0000000000000000    0.0000000000000000   -4.9042588199999999
   Al   Ni
     2     4
Direct
  0.6666669999999968  0.3333330000000032  0.8101259399999989
  0.3333330000000032  0.6666669999999968  0.1898740600000011
  0.6666669999999968  0.3333330000000032  0.3148899600000021
  0.3333330000000032  0.6666669999999968  0.6851090400000004
  0.0000000000000000  0.0000000000000000  0.5000000000000000
  0.0000000000000000  0.0000000000000000  0.0000000000000000
 
  0.00000000E+00  0.00000000E+00  0.00000000E+00
  0.00000000E+00  0.00000000E+00  0.00000000E+00
  0.00000000E+00  0.00000000E+00  0.00000000E+00
  0.00000000E+00  0.00000000E+00  0.00000000E+00
  0.00000000E+00  0.00000000E+00  0.00000000E+00
  0.00000000E+00  0.00000000E+00  0.00000000E+00
