Converted from final.data
1.0
15.7089027674330204 0.0000000000000000 0.0000000000000000
0.4745185790749446 15.3998986061031538 0.0000000000000000
0.1281957651017342 -0.2569018494897246 33.1307660649345053
Al Zr Nb W Ta Ni
7 20 6 11 5 14
Direct
0.9749751957129351 0.7677954029274658 0.2142983239704847
0.1668525043210496 0.9679939466055182 0.9870190466251341
0.4943004562801804 0.0633759554234200 0.1289884774034039
0.1435598095714035 0.0453584729833935 -0.0125602799919903
0.1486677516279425 0.2556636028254475 0.3397537371147786
0.4502232717930861 0.3156562958027985 0.3039724574487383
0.9907284750839455 0.2172938878292419 0.1337546086072973
0.0663717423780659 0.4591078938393549 0.0635844694706474
0.9418559148035759 0.2462183046515764 -0.0473018779548140
0.1649144036655281 0.4521567800512192 -0.0189241583340168
-0.0299677550512413 0.2513871735589533 0.0452219260639110
0.2918026239441722 0.1857210854004811 0.0089685728253639
0.2147580107875911 0.4737878500979165 0.1862574035355175
0.0853767743037285 0.7496792266181237 0.2514184081155445
0.3039638328889307 0.2154374235637745 0.2826936137504390
0.3929009643044876 0.4641072667693494 0.2451548003274146
0.5084108807652733 0.1359265609004670 0.2706799167937980
0.2646028954527700 0.6308180287866739 0.2535750458448428
0.2937651335913594 0.4869004508168954 0.0557227219213882
0.0140489738821855 0.4156347731612587 0.4617248397596544
0.1917201916068526 0.5128421057941908 0.3337766572611540
0.3997384383020669 0.4789952686777906 0.3552068195883804
0.2766163448923738 0.2886034801682417 0.1796131041766938
0.6323798878217741 0.5067761680885761 0.3224242724090619
0.2995036917588339 0.2125915772080741 0.0942955234806929
0.1725479067280480 0.2170252389475309 0.4241264544434223
0.7485658067604827 0.6452701393769802 0.0430059293131284
0.1158407155052551 0.3056736766587465 0.1212626565313611
0.4720996834896876 0.4570229845127833 0.0247483031823461
0.0940412826749238 0.2327035114703196 -0.0077084371341857
0.3390123372030274 0.2058045554795874 0.4431356953284721
0.4427515471912888 0.2847483416330250 0.3825743889863871
0.5002756881497202 0.4159885380173254 0.1852938468159112
0.1677435286927038 0.5753542957216264 0.1193094309671405
0.2436552465575973 0.0432983737229515 0.0560646428280039
0.3279228330839111 0.6678428682291939 0.1011721113714464
0.1937363700265919 0.1143826448684082 0.1363163433512104
0.2432609242089652 0.6987051540220629 0.1772173496454350
0.1637401309974201 0.4176637536008154 0.9464264709809360
0.2051068815776612 0.1173467520958023 0.2304708072002602
0.0612395050508169 0.3891684051676014 0.2132651507485972
0.7108507754375869 0.3222194967452384 0.0636162116797658
0.8833128887495739 0.3416230196144913 0.0308322377885649
0.7010071236531077 0.1672862782227605 0.0208228578382561
0.8720348062189108 0.4291229852742866 0.9969574282415999
0.9784729108879899 0.5671473740801916 0.1940555850933961
0.6109745628783660 0.5666531670688840 -0.0165575051708205
0.7856283158560303 0.4597936312948697 0.0953082223179793
0.8327779664580495 0.2920534805665468 0.1290916580521772
0.2026772497469028 0.3357665567189719 0.0405507899176731
0.2002561454240908 0.9264348438557720 0.0144935292801158
0.3502475806889134 0.5602718898242410 0.1737107352240845
0.3040912678954883 0.3785287806154880 -0.0066510862096221
0.1567652695392403 0.1932330093924843 0.0611724483997354
0.3425476895262819 0.5502356131561690 -0.0281307721627495
-0.0500874663986923 0.3485512417062842 0.1049753894246033
0.1051411451822310 0.2859247147013109 0.5050299324458509
0.1767290900307815 0.1657981828282152 0.5177513204499080
0.1813615859110435 0.6866409146162955 0.3164287707652330
0.1065000357443526 0.3710176156988644 0.3885323575601431
0.6914784782908585 0.1594915971941417 0.2913532380316208
0.2254364154664914 0.4234129981275707 0.2732208241518710
0.2928368101012884 0.3586357163011646 0.3300108690189044
