Al1 Ni1                                 
   1.00000000000000     
     2.8930620166204717    0.0000000000000000   -0.0000000000000000
    -0.0000000000000000    2.8930620166204717    0.0000000000000000
     0.0000000000000000   -0.0000000000000000    2.8930620166204717
   Al   Ni
     1     1
Direct
  0.5000000000000000  0.5000000000000000  0.5000000000000000
  0.0000000000000000  0.0000000000000000  0.0000000000000000
 
  0.00000000E+00  0.00000000E+00  0.00000000E+00
  0.00000000E+00  0.00000000E+00  0.00000000E+00
