fcc_Al4_Cu20_Nb4_Ni4_Ta0_W0_Zr0         
   1.00000000000000     
     7.4875368893240610    0.0000000000000000    0.0000000000000000
     0.0000000000000000    7.6661888955223745    0.0000000000000000
     0.0000000000000000    0.0000000000000000    7.3060869220714002
   Al   Cu   Nb   Ni
     4    20     4     4
Direct
 -0.0261906193875293 -0.0180008753484351  0.0027894688863672
  0.2761906193875291  0.2680008753484349  0.0027894688863672
 -0.0261906193875293  0.2680008753484349  0.2472105311136327
  0.2761906193875291 -0.0180008753484351  0.2472105311136327
  0.5204840892440196 -0.0071753559664085  0.4924073271391515
  0.7295159107559804  0.2571753559664083  0.4924073271391515
  0.5204840892440196  0.2571753559664083  0.7575926728608484
  0.7295159107559804 -0.0071753559664085  0.7575926728608484
 -0.0027928668678458  0.5044620368657688  0.0060194903420248
  0.2527928668678455  0.7455379631342312  0.0060194903420248
 -0.0027928668678458  0.7455379631342312  0.2439805096579753
  0.2527928668678455  0.5044620368657688  0.2439805096579753
 -0.0062307214867966  0.5143058250300948  0.4953659813705410
  0.2562307214867966  0.7356941749699052  0.4953659813705410
 -0.0062307214867966  0.7356941749699052  0.7546340186294590
  0.2562307214867966  0.5143058250300948  0.7546340186294590
  0.5062738947087608  0.5069032433060700  0.4982159296249948
  0.7437261052912392  0.7430967566939300  0.4982159296249948
  0.5062738947087608  0.7430967566939300  0.7517840703750056
  0.7437261052912392  0.5069032433060700  0.7517840703750056
  0.5086008223074852  0.5026655344624327  0.0031255660943742
  0.7413991776925148  0.7473344655375673  0.0031255660943742
  0.5086008223074852  0.7473344655375673  0.2468744339056258
  0.7413991776925148  0.5026655344624327  0.2468744339056258
 -0.0092779485097106 -0.0040707151453629  0.4958336604727857
  0.2592779485097105  0.2540707151453630  0.4958336604727857
 -0.0092779485097106  0.2540707151453630  0.7541663395272147
  0.2592779485097105 -0.0040707151453629  0.7541663395272147
  0.4990004771683957  0.0044916132898938  0.0057062580234472
  0.7509995228316043  0.2455083867101063  0.0057062580234472
  0.4990004771683957  0.2455083867101063  0.2442937419765527
  0.7509995228316043  0.0044916132898938  0.2442937419765527
 
  0.00000000E+00  0.00000000E+00  0.00000000E+00
  0.00000000E+00  0.00000000E+00  0.00000000E+00
  0.00000000E+00  0.00000000E+00  0.00000000E+00
  0.00000000E+00  0.00000000E+00  0.00000000E+00
  0.00000000E+00  0.00000000E+00  0.00000000E+00
  0.00000000E+00  0.00000000E+00  0.00000000E+00
  0.00000000E+00  0.00000000E+00  0.00000000E+00
  0.00000000E+00  0.00000000E+00  0.00000000E+00
  0.00000000E+00  0.00000000E+00  0.00000000E+00
  0.00000000E+00  0.00000000E+00  0.00000000E+00
  0.00000000E+00  0.00000000E+00  0.00000000E+00
  0.00000000E+00  0.00000000E+00  0.00000000E+00
  0.00000000E+00  0.00000000E+00  0.00000000E+00
  0.00000000E+00  0.00000000E+00  0.00000000E+00
  0.00000000E+00  0.00000000E+00  0.00000000E+00
  0.00000000E+00  0.00000000E+00  0.00000000E+00
  0.00000000E+00  0.00000000E+00  0.00000000E+00
  0.00000000E+00  0.00000000E+00  0.00000000E+00
  0.00000000E+00  0.00000000E+00  0.00000000E+00
  0.00000000E+00  0.00000000E+00  0.00000000E+00
  0.00000000E+00  0.00000000E+00  0.00000000E+00
  0.00000000E+00  0.00000000E+00  0.00000000E+00
  0.00000000E+00  0.00000000E+00  0.00000000E+00
  0.00000000E+00  0.00000000E+00  0.00000000E+00
  0.00000000E+00  0.00000000E+00  0.00000000E+00
  0.00000000E+00  0.00000000E+00  0.00000000E+00
  0.00000000E+00  0.00000000E+00  0.00000000E+00
  0.00000000E+00  0.00000000E+00  0.00000000E+00
  0.00000000E+00  0.00000000E+00  0.00000000E+00
  0.00000000E+00  0.00000000E+00  0.00000000E+00
  0.00000000E+00  0.00000000E+00  0.00000000E+00
  0.00000000E+00  0.00000000E+00  0.00000000E+00
