Zr1 Cu5
1.0
   4.1782735200000003    0.0000020300000000    2.4123295400000000
   1.3927595300000000    3.9393137800000000    2.4123295400000000
  -0.0000000000000000   -0.0000000000000000    4.8246590800000000
Zr Cu
1 5
direct
   0.0000000000000000   -0.0000000000000000   -0.0000000000000000 Zr
   0.2500000000000000    0.2500000000000000    0.2500000000000000 Cu
   0.6241108300000000    0.6241108300000000    0.6241108300000000 Cu
   0.6241108300000000    0.6241108300000000    0.1276685200000000 Cu
   0.1276685200000000    0.6241108300000000    0.6241108300000000 Cu
   0.6241108300000000    0.1276685200000000    0.6241108300000000 Cu
