Converted from final.data
1.0
15.0604412282261979 0.0000000000000000 0.0000000000000000
0.2517590399012175 15.0136467194584604 0.0000000000000000
-0.4228535603998752 -0.1046715901049945 35.0826459401039585
Al W Ni Zr
21 9 16 18
Direct
0.4181946749816522 0.2566036387111638 0.1773085591882987
0.8755531273569429 0.2285579378663205 0.0909903828678522
0.0243513964655650 0.4374337813190521 0.0290174858932053
0.0786507554987937 0.2563299044817082 0.0060660214948435
0.0340000456041443 0.2629852951207994 0.0781895858001128
0.1499192576588302 0.1391878635927391 0.1186459947031817
0.9888847851943052 0.0903324643972952 0.4939359385574432
0.0287859341150066 0.1834128840614070 0.4352724632124991
0.1879986669557194 -0.0114013106775418 0.5310389256839914
0.1894556769295963 0.0955725347403069 0.4319111176565931
0.0393379185944508 0.5878136019004659 0.3246840772854366
0.0153631174751906 -0.0182436224764475 0.2670441791149024
0.0887151097947217 0.9183295470653793 0.4678853837299147
0.3359946539645370 0.2533303406034050 0.3038766200523640
0.3309761127365643 0.2538307340247010 0.4441481170663072
0.3584310607182399 0.0628788620653839 0.4091653877124694
0.4661391123441053 0.4061027668251982 0.4220838310289497
0.2069524721412667 0.0174447716545083 0.3692486921330961
0.2829752108787778 0.0351809803149742 0.2440258614073814
0.3708388260605104 0.0901955395718170 0.1811206684651192
0.8762805290228760 0.0687265782408834 0.1357145418976697
0.2993774079230646 0.4389504426733578 0.0911205119281229
0.1756592922109469 -0.0089809505292661 0.0801772276565776
0.3900432578933825 0.1115603458699288 0.9951081409771569
0.3079386342279687 0.0961371193736160 0.0816446940021820
0.3109143752174457 0.3869658745760733 0.1713894442618532
0.3463179028557707 0.4688182489957335 0.0212646011344763
0.4409173258279934 0.1675236705214028 0.0410999538414761
0.1956738249792153 0.3920882607528471 0.0239883400943574
0.2438955267056505 0.1444680518218831 0.0168155176790921
-0.0124403955565062 0.9448680551514680 0.2059151700401007
-0.0211197639162034 0.4839063762593558 0.0911899706603203
0.1933539972797610 0.2508598636498957 0.0713219248520877
0.0940457604859798 0.0996247744127473 -0.0192367574304534
0.9874146690692357 0.1012751956686414 0.0911194305639378
0.1199439196648023 0.3964674139270227 0.0931884495724131
0.0982355913888300 0.1263349434276322 0.0494255593251669
0.2351157199761081 0.0113598099723372 0.1530460948612775
0.3247244503321413 0.2950263492280401 0.0281006142115728
0.2770941805837506 0.1994085681568275 0.1555720955211918
0.9361144270138045 0.3457610104848804 0.0548541095074636
0.4425919770729185 0.3953611434854703 0.1300040737382411
0.8911771650454930 0.1051840155007649 0.4366348261899998
0.0804596671726101 0.2160556202085988 0.3483250994909773
0.8307965162896800 0.1328082257684524 0.9949485184382404
0.4884630036039818 -0.0126641669408373 0.1998069326580861
0.0459387649738256 -0.0074211820099722 0.1401503043813388
0.1412661312456930 0.3138414943931629 0.1567119949496870
0.5505049931174130 0.5739476801772446 0.4104280596395040
0.4392145184158552 0.1447202839326954 0.2533018663357475
0.3094949205568069 0.3843124279090244 0.3774088219499986
0.2374730824314432 0.2028236808628109 0.3713601392916350
0.1105337970672807 0.1152745442747350 0.2080433431107619
-0.0032607430975734 0.3020624873353604 0.2218142323601868
0.1364235803656119 0.3399345094946544 0.4151006055773464
0.3819600846426692 0.9017503059031762 0.2700635731278062
0.3739098601188761 0.0571474891953833 0.3249959016856681
0.5045353742881028 0.3183604769347170 0.4891791750299066
0.4569713924327909 0.2359283605542282 0.3790798639730332
0.2695395371359700 0.9348566871691024 0.4513596918775827
0.2666316139930345 0.2543308404161450 0.2277594807221677
-0.0172330604168011 0.3600297516123731 0.3309121410520648
0.1869484636997111 0.1399790174163415 0.2945671225396471
0.1758681810022219 0.3487942785141509 0.2977496516288357
