Zr2 Cu6
1.0
   2.8279339999999999   -4.8981250000000003    0.0000000000000000
   2.8279339999999999    4.8981250000000003    0.0000000000000000
   0.0000000000000000    0.0000000000000000    4.2436340000000001
Zr Cu
2 6
direct
   0.3333330000000000    0.6666670000000000    0.7500000000000000 Zr
   0.6666670000000000    0.3333330000000000    0.2500000000000000 Zr
   0.1512679999999990    0.3025359999999990    0.2500000000000000 Cu
   0.6974640000000000    0.8487319999999990    0.2500000000000000 Cu
   0.1512679999999990    0.8487319999999990    0.2500000000000000 Cu
   0.8487319999999990    0.6974640000000000    0.7500000000000000 Cu
   0.3025359999999990    0.1512679999999990    0.7500000000000000 Cu
   0.8487319999999990    0.1512679999999990    0.7500000000000000 Cu
