Al12 W3
1.0
   5.1922515100000002   -0.0231002800000000    0.2548963900000000
   0.8323215100000000    4.9518152100000004    1.4900011800000001
  -0.0117114800000000   -0.0016230700000000    9.2218588199999996
Al W
12 3
direct
   0.5139832800000000    0.8531965800000000    0.0000202900000000 Al
   0.1523014300000000    0.4956172900000000    0.9999076000000000 Al
   0.6892513800000000    0.4210187700000000    0.8461429500000001 Al
   0.6892352300000000    0.2673579100000000    0.1538714700000000 Al
   0.2158709999999990    0.3030715200000000    0.7636172100000000 Al
   0.2157321999999990    0.0669769800000000    0.2364111200000000 Al
   0.8063568200000000    0.9489603999999990    0.7509244900000001 Al
   0.8061822100000000    0.6999726300000000    0.2491802700000000 Al
   0.5803671900000000    0.5424963700000001    0.5317253400000000 Al
   0.5804563600000000    0.0742749100000000    0.4682904800000000 Al
   0.0715618900000000    0.2270668600000000    0.4995881800000000 Al
   0.0716728600000000    0.7266660600000000    0.5003284800000000 Al
   0.9931754900000000    0.0095602000000000    0.0001175300000000 W
   0.3299900100000000    0.8067938300000000    0.7269884100000000 W
   0.3298596700000000    0.5339686900000000    0.2728871800000000 W
