Al4 
1.0
2.8329475651999547e+00 0.0000000000000000e+00 0.0000000000000000e+00 
-1.4164855013731850e+00 2.4534045225187193e+00 0.0000000000000000e+00 
5.5281722378621698e-16 3.3053233205098140e-16 9.4221697811684049e+00 
Al 
4 
Cartesian
   0.0003154090    0.0000000001    9.4221697812
  -0.0000602220    1.6356038328    2.3555424453
   0.0003154090    0.0000000001    4.7110848906
   1.4164174668    0.8178006897    7.0666273359
