Ni6 Nb7 
1.0
4.9327282330016144e+00 0.0000000000000000e+00 0.0000000000000000e+00 
2.4663464723991053e+00 4.2718642502720856e+00 0.0000000000000000e+00 
2.4667468909809407e+00 1.4244794079107019e+00 9.0187780035681158e+00 
Ni Nb 
6 7 
Cartesian
   3.6852813250    0.7205746863    2.1376127248
   1.2477618238    0.7204915185    2.1374594056
   2.4665826582    2.8313693121    2.1376307624
   6.1805059901    4.9757608569    6.8811923351
   8.6180087158    4.9758206661    6.8812464477
   7.3992118099    2.8649373253    6.8811833163
   4.9325769273    2.8478178053    0.2644918988
   4.9329573663    2.8481689032    3.1862621184
   7.3992624982    4.2721215681    4.4722045801
   2.4665369010    1.4242092745    4.5465734235
   4.9330320691    2.8483803246    8.7542843011
   7.3989390598    4.2717659997    0.0000000148
   4.9328543647    2.8481662112    5.8325158851
