Ni4 Cu4 Zr12 Ta12 
1.0
8.3366730632483446e+00 0.0000000000000000e+00 0.0000000000000000e+00 
0.0000000000000000e+00 8.4347584629731251e+00 0.0000000000000000e+00 
0.0000000000000000e+00 0.0000000000000000e+00 8.3855419538733305e+00 
Ni Cu Zr Ta 
4 4 12 12 
Cartesian
   4.2088694361    4.2689071709    0.1528030226
   6.2119718930    4.2689071709    1.9435841430
   4.2088694361    6.2745409078    1.9435841430
   6.2119718930    6.2745409078    0.1528030226
   2.0926800090    2.0234816858    4.2471596020
   2.0926800090    0.0852045561    6.2347678403
   8.3281613201    0.0852045561    4.2471596020
   8.3281613201    2.0234816858    6.2347678403
   0.2199306057    2.3809298799    2.2044248110
   4.4157773248    3.9207540806    3.9944193676
   1.8642384937    8.1625181988    2.2044248110
   6.0050640042    6.6226939981    3.9944193676
   1.8642384937    2.3809298799    8.2775026313
   2.3573360321    4.0912374187    6.0965489523
   8.0635052970    4.0912374187    4.3853784901
   6.0050640042    3.9207540806    6.4875080748
   2.3573360321    6.4522106600    4.3853784901
   0.2199306057    8.1625181988    8.2775026313
   4.4157773248    6.6226939981    6.4875080748
   8.0635052970    6.4522106600    6.0965489523
   3.9758094039    2.1831769677    1.8257421219
   4.1273367735    0.3178174815    3.9176245743
   6.2935045556    1.7908679169    3.9176245743
   6.4450319252    2.1831769677    0.2706433666
   2.2032326305    4.5062950131    2.2490442797
   3.9758094039    8.3602711110    0.2706433666
   6.4450319252    8.3602711110    1.8257421219
   8.2176086986    6.0371530656    2.2490442797
   4.1273367735    1.7908679169    6.5643028680
   6.2935045556    0.3178174815    6.5643028680
   2.2032326305    6.0371530656    8.2328831626
   8.2176086986    4.5062950131    8.2328831626
