Cu2
1.0
   2.5340960600000000   -0.0000000100000000   -0.0000000000000000
  -1.2670495399999999    2.1945920999999999    0.0000000000000000
  -0.0000000000000000   -0.0000000000000000    4.1125710000000000
Cu
2
direct
   0.3333350000000000    0.6666690000000000    0.2500000000000000 Cu
   0.6666670000000000    0.3333339999999990    0.7500009999999990 Cu
