Al1 Ni2 Zr1 
1.0
4.3243842774385177e+00 0.0000000000000000e+00 0.0000000000000000e+00 
2.1621879522848371e+00 3.7450197283636468e+00 0.0000000000000000e+00 
2.1622009656475560e+00 1.2483474541702213e+00 3.5308580159774579e+00 
Al Ni Zr 
1 2 1 
Cartesian
   0.0002703591    0.0002516182    0.0000000871
   2.1622581645    1.2484691263    0.8827145040
   6.4866447622    3.7451527176    2.6481435120
   4.3244406523    2.4968146670    1.7654290080
