POSCAR file written by OVITO Basic 3.9.4
1
7.9045816566 0.0 0.0
-0.2215511517 16.7405 0.0
0.1649888004 0.1431666078 7.7480280106
Al Zr Nb W Ta Cu 
2 14 14 3 6 22 
Cartesian
3.8635883197 0.4130119477 3.9804320927
4.0300883197 3.6587519477 0.0263390927
2.1180783197 2.0083619478 7.4019420927
5.8712020377 7.4750135489 1.9850920927
7.6892899052 9.5245356826 3.4263125067
7.6212444877 13.1863701862 0.0675220085
7.7041272732 13.5595501862 3.8333687993
4.1156531589 9.5805961862 3.4179654741
4.0078609663 13.1660601862 3.46930368
1.5443114817 15.4065201862 7.3047255581
1.9445739482 15.2703101862 3.6090076862
5.7012042881 11.5469101862 -0.165258333
5.7930925485 14.8927101862 -0.0999902749
2.0667303292 9.6383287862 1.702956879
1.835221752 13.5245101862 1.8901717195
3.7329154075 15.2214101862 5.292279756
3.4156066358 13.4136301862 -0.0264234468
2.017752296 11.1830701862 -0.1144805849
1.9162102474 11.1365801862 3.46668287
5.7367906026 15.4476701862 3.8235778489
1.8101198769 13.0700201862 5.6483439876
6.0037335458 9.8834401862 1.7538994909
5.9052739102 9.5434656826 5.4285618745
5.915390748 13.0362701862 1.9671938631
5.6712299344 13.0104101862 5.4141424747
0.1862960869 11.6774001862 1.5544904667
0.1187162271 11.5729601862 5.7647771792
3.6717612428 11.5261201862 1.5952860936
3.5573137105 11.6522101862 5.6174382096
4.0144757865 14.9984601862 1.5986980915
5.9623529324 11.5821901862 3.771062751
-0.0188333369 15.1724601862 1.7007118833
7.5607994156 15.0104801862 5.3550209577
2.1021642624 5.7772512265 7.5858484289
5.9563083197 5.7226819477 7.5175920927
1.9445720377 7.4799085489 2.0073920927
5.8607683197 3.7621519478 1.9596420927
0.0772013197 1.9744119477 1.9567220927
3.9911383197 5.6608419477 5.6162820927
7.8857483197 7.5783619478 7.4083820927
0.0983545319 7.4526519477 3.9291920927
7.8819583197 3.8867819477 7.4634920927
0.0903945319 3.8261319477 3.8589820927
4.1095983197 0.1857042477 7.5414620927
3.9349983197 3.7345019477 3.8322820927
2.0297583197 2.0179219478 3.8597520927
2.0324383197 5.6480119477 3.8387020927
5.9912283197 2.0234119478 7.5110120927
5.8664283197 1.9995519477 3.9581620927
5.9559683197 5.5806419478 3.9010520927
2.0161883197 7.5320119477 5.5137320927
2.0166183197 3.8449119477 2.0215020927
1.9660783197 3.8510319478 5.5318520927
5.9658983197 0.1877484477 5.6571820927
6.0064483197 3.7747819477 5.6727120927
7.8555771076 1.9257419477 5.6019620927
0.0988603197 5.5592419478 1.9793920927
0.1508150197 5.6591719477 5.6074220927
3.9191483197 1.9551619477 1.9314020927
4.0700183197 2.0152919478 5.6491020927
3.8745283197 5.5586719477 2.0627820927
