Zr8 Ta12 W12 
1.0
9.2831522477768047e+00 0.0000000000000000e+00 0.0000000000000000e+00 
0.0000000000000000e+00 9.3125919052832593e+00 0.0000000000000000e+00 
0.0000000000000000e+00 0.0000000000000000e+00 6.6646407407769024e+00 
Zr Ta W 
8 12 12 
Cartesian
   2.2745579638    2.3859791721    3.2256994478
   0.0462301910    2.3859791721    5.1051014782
   4.5894790735    2.4241701115    5.0326101808
   7.0144612362    2.4241701115    3.2981907452
   0.0462303767    9.2547607096    3.2256994478
   2.2745579638    9.2547607096    5.1051014782
   4.5894790735    9.2165697701    3.2981907452
   7.0144612362    9.2165697701    5.0326101808
   4.6169386378    2.4116167376    1.6068448826
   6.9869923887    2.4116167376    0.0593137697
   4.6169386378    9.2291231440    0.0593141030
   0.0217733551    4.7109143042    3.2792565008
   2.2990190699    6.9298255774    3.2792565008
   0.0217733551    6.9298255774    5.0515444252
   2.2990190699    4.7109143042    5.0515444252
   6.9870016719    9.2291231440    1.6068448826
   4.6454657647    4.7323239530    6.6517379963
   6.9584745450    4.7323239530    1.6790629297
   6.9584745450    6.9084159286    6.6517379963
   4.6454657647    6.9084159286    1.6790629297
   2.2962619737    2.4035613456    0.1214270884
   0.0245238603    2.4035613456    1.5447304309
   2.2962619737    9.2371785360    1.5447304309
   2.3205745494    6.9287080664    0.0579426532
   2.3205745494    4.7120318152    1.6082177986
   4.6166322938    4.7412267908    3.3401979757
   4.6166322938    6.8995130908    4.9905962856
   0.0245234890    9.2371785360    0.1214270884
   0.0002149393    4.7120318152    0.0579426532
   0.0002149440    6.9287080664    1.6082177986
   6.9873080159    6.8995130908    3.3401979757
   6.9873080159    4.7412267908    4.9905962856
