Ni24 Cu8 
1.0
7.0584747448020968e+00 0.0000000000000000e+00 0.0000000000000000e+00 
1.9761300700366870e-08 7.0584701489810300e+00 0.0000000000000000e+00 
-8.3539443488223115e-10 8.7872358870753562e-09 7.1474181954081315e+00 
Ni Cu 
24 8 
Cartesian
   3.5350888579    3.5350865463    0.0175629934
   5.2880045978    5.2880011400    0.0175629219
   3.5350888626    5.2880011422    1.7692933423
   5.2880045927    3.5350865484    1.7692933423
   3.5220659818    7.0512987433    0.0187949938
   5.3010274739    1.7717889429    0.0187949224
   3.5220659668    1.7717889451    1.7680568390
   5.3010274885    7.0512987455    1.7680568390
   7.0513033443    3.5220636688    0.0187948509
   1.7717901114    5.3010240174    0.0187949224
   7.0513033491    5.3010240196    1.7680568390
   1.7717901062    3.5220636710    1.7680568390
   0.0058536566    0.0058536458    0.0175629934
   1.7587672156    1.7587660655    0.0175629934
   0.0058535837    1.7587660677    1.7692933423
   1.7587672104    0.0058535562    1.7692933423
   0.0098684532    0.0098684515    3.5515521013
   1.7547509430    1.7547498003    3.5515521013
   0.0098684578    1.7547498026    5.3827206430
   1.7547509379    0.0098684537    5.3827206430
   3.5391051296    3.5391028201    3.5515521013
   5.2839883253    5.2839848748    3.5515521013
   3.5391051343    5.2839848771    5.3827206430
   5.2839883202    3.5391028224    5.3827206430
   7.0547478796    3.5255082066    3.5616299610
   1.7683455753    5.2975794884    3.5616299610
   7.0547478843    5.2975794906    5.3726427833
   1.7683455701    3.5255082089    5.3726427833
   3.5255105171    7.0547432811    3.5616299610
   5.2975829378    1.7683444139    3.5616299610
   3.5255105021    1.7683444161    5.3726427833
   5.2975829524    7.0547432833    5.3726427833
