Nb7
1.0
   2.7811420000000000    0.0000000000000000    0.0000000000000000
   0.1609350000000000    4.6692299999999998    0.0000000000000000
   0.7593710000000000    1.8977590000000000    9.7409520000000001
Nb
7
direct
   0.6474970000000000    0.2177849999999990    0.5712490000000000 Nb
   0.3525030000000000    0.7822150000000000    0.4287510000000000 Nb
   0.9392370000000000    0.6504380000000000    0.7136009999999990 Nb
   0.0607630000000000    0.3495620000000000    0.2863990000000000 Nb
   0.2232090000000000    0.0776300000000000    0.8566690000000000 Nb
   0.7767910000000000    0.9223700000000000    0.1433310000000000 Nb
   0.5000000000000000    0.5000000000000000    0.0000000000000000 Nb
