Al1 Cu2 Zr2 
1.0
7.5267568414138353e+00 0.0000000000000000e+00 0.0000000000000000e+00 
6.3156914083756277e+00 4.0944663794517746e+00 0.0000000000000000e+00 
1.2482866587748129e+00 3.6921171110977841e-01 2.7750157884901578e+00 
Al Cu Zr 
1 2 2 
Cartesian
   6.3164370939    4.0943581796    0.0000176687
   3.4813257622    1.0297226150    1.6828056493
  11.6094606596    3.4339573547    1.0921934890
   8.9139752094    2.6366250803    0.7181907362
   6.1768218146    1.8269956877    2.0568250523
