Cu6                                     
   1.00000000000000     
    -1.2741978039214654   -2.2069760716639379    0.0000000000000000
    -1.2741978039214654    2.2069760716639379   -0.0000000000000000
     0.0000000000000000   -0.0000000000000000  -24.9270365526132878
   Cu
     6
Direct
  0.6666659999999993  0.3333340000000007  0.9182400258947047
  0.0000000000000000  0.0000000000000000  0.0021529508401550
  0.3333340000000007  0.6666659999999993  0.8339001427607543
  0.6666659999999993  0.3333340000000007  0.6650939741052960
 -0.0000000000000000  0.0000000000000000  0.7494328572392489
  0.3333340000000007  0.6666659999999993  0.5811800491598412
 
  0.00000000E+00  0.00000000E+00  0.00000000E+00
  0.00000000E+00  0.00000000E+00  0.00000000E+00
  0.00000000E+00  0.00000000E+00  0.00000000E+00
  0.00000000E+00  0.00000000E+00  0.00000000E+00
  0.00000000E+00  0.00000000E+00  0.00000000E+00
  0.00000000E+00  0.00000000E+00  0.00000000E+00
