Al5 Cu1 W2 
1.0
3.8171672830675552e+00 0.0000000000000000e+00 0.0000000000000000e+00 
4.9700298219510955e-16 3.8171672830675547e+00 0.0000000000000000e+00 
3.7269790983918702e-17 -8.9447498361404890e-16 8.3106910423630804e+00 
Al Cu W 
5 1 2 
Cartesian
   3.8171672831    1.9085836415    2.1657162215
   1.9085836415    3.8171672831    6.1449748209
   1.9085836415    3.8171672831    2.1657162215
   3.8171672831    1.9085836415    6.1449748209
   1.9085836415    1.9085836415    0.0000000000
   3.8171672831    3.8171672831    4.1553455212
   3.8171672831    3.8171672831    0.0000000000
   1.9085836415    1.9085836415    4.1553455212
