Ta1 W3 
1.0
4.5071030637101428e+00 0.0000000000000000e+00 0.0000000000000000e+00 
2.2535489194723843e+00 3.9032801937559016e+00 0.0000000000000000e+00 
2.2535490730295606e+00 1.3010844191786286e+00 3.6800414057822346e+00 
Ta W 
1 3 
Cartesian
   6.7605583966    3.9032305236    2.7600310543
   2.2534646291    1.3010521204    0.9200103514
   4.5070261609    2.6021471769    1.8400207029
   0.0009129292    0.0000916260    0.0000000375
