fcc_Al8_Cu0_Nb0_Ni0_Ta0_W8_Zr16         
   1.00000000000000     
     9.1725711778887913    0.0000000000000000    0.0000000000000000
     0.0000000000000000    7.9701815745942115    0.0000000000000000
     0.0000000000000000    0.0000000000000000    8.5766982192726040
   Al   W    Zr
     8     8    16
Direct
  0.4819501938856573  0.4968611965219185  0.0131646207223216
  0.7680498061143430  0.7531388034780815  0.0131646207223216
  0.4819501938856573  0.7531388034780815  0.2368353792776784
  0.7680498061143430  0.4968611965219185  0.2368353792776784
  0.4953965739221115  0.0039704903981999  0.0135355500586524
  0.7546034260778890  0.2460295096018000  0.0135355500586524
  0.4953965739221115  0.2460295096018000  0.2364644499413476
  0.7546034260778890  0.0039704903981999  0.2364644499413476
 -0.0079595408563902  0.0293463975150414  0.0016012895469544
  0.2579595408563903  0.2206536024849585  0.0016012895469544
 -0.0079595408563902  0.2206536024849585  0.2483987104530456
  0.2579595408563903  0.0293463975150414  0.2483987104530456
 -0.0010449804649299  0.0318506235447734  0.4975497242587245
  0.2510449804649299  0.2181493764552265  0.4975497242587245
 -0.0010449804649299  0.2181493764552265  0.7524502757412754
  0.2510449804649300  0.0318506235447734  0.7524502757412754
  0.0056426840171433  0.4640724719540616  0.0069340045995732
  0.2443573159828567  0.7859275280459386  0.0069340045995732
  0.0056426840171433  0.7859275280459386  0.2430659954004268
  0.2443573159828567  0.4640724719540616  0.2430659954004268
  0.0038435340190758  0.4706356474333860  0.4936632248424184
  0.2461564659809242  0.7793643525666140  0.4936632248424184
  0.0038435340190758  0.7793643525666140  0.7563367751575818
  0.2461564659809242  0.4706356474333860  0.7563367751575818
  0.5060286383234988  0.0016123524147621  0.4824413642978683
  0.7439713616765015  0.2483876475852379  0.4824413642978683
  0.5060286383234988  0.2483876475852379  0.7675586357021317
  0.7439713616765015  0.0016123524147621  0.7675586357021317
  0.4956823878475927  0.4954790057658906  0.4778506805390446
  0.7543176121524074  0.7545209942341092  0.4778506805390446
  0.4956823878475927  0.7545209942341092  0.7721493194609551
  0.7543176121524074  0.4954790057658906  0.7721493194609551
 
  0.00000000E+00  0.00000000E+00  0.00000000E+00
  0.00000000E+00  0.00000000E+00  0.00000000E+00
  0.00000000E+00  0.00000000E+00  0.00000000E+00
  0.00000000E+00  0.00000000E+00  0.00000000E+00
  0.00000000E+00  0.00000000E+00  0.00000000E+00
  0.00000000E+00  0.00000000E+00  0.00000000E+00
  0.00000000E+00  0.00000000E+00  0.00000000E+00
  0.00000000E+00  0.00000000E+00  0.00000000E+00
  0.00000000E+00  0.00000000E+00  0.00000000E+00
  0.00000000E+00  0.00000000E+00  0.00000000E+00
  0.00000000E+00  0.00000000E+00  0.00000000E+00
  0.00000000E+00  0.00000000E+00  0.00000000E+00
  0.00000000E+00  0.00000000E+00  0.00000000E+00
  0.00000000E+00  0.00000000E+00  0.00000000E+00
  0.00000000E+00  0.00000000E+00  0.00000000E+00
  0.00000000E+00  0.00000000E+00  0.00000000E+00
  0.00000000E+00  0.00000000E+00  0.00000000E+00
  0.00000000E+00  0.00000000E+00  0.00000000E+00
  0.00000000E+00  0.00000000E+00  0.00000000E+00
  0.00000000E+00  0.00000000E+00  0.00000000E+00
  0.00000000E+00  0.00000000E+00  0.00000000E+00
  0.00000000E+00  0.00000000E+00  0.00000000E+00
  0.00000000E+00  0.00000000E+00  0.00000000E+00
  0.00000000E+00  0.00000000E+00  0.00000000E+00
  0.00000000E+00  0.00000000E+00  0.00000000E+00
  0.00000000E+00  0.00000000E+00  0.00000000E+00
  0.00000000E+00  0.00000000E+00  0.00000000E+00
  0.00000000E+00  0.00000000E+00  0.00000000E+00
  0.00000000E+00  0.00000000E+00  0.00000000E+00
  0.00000000E+00  0.00000000E+00  0.00000000E+00
  0.00000000E+00  0.00000000E+00  0.00000000E+00
  0.00000000E+00  0.00000000E+00  0.00000000E+00
