Al2 Ni9 Nb1 
1.0
3.6125249247722224e+00 0.0000000000000000e+00 0.0000000000000000e+00 
8.2739632433097316e-08 3.6125273893626586e+00 0.0000000000000000e+00 
3.2941640510097762e-08 -4.8150018933402831e-09 1.0763812085061510e+01 
Al Ni Nb 
2 9 1 
Cartesian
   0.0000002677    0.0000000109    3.6586950744
   0.0000002973    0.0000000192    7.1051170107
   1.8062625367    1.8062636899   10.7638120851
   1.8062625148    1.8062636931    3.6151554545
   1.8062624680    0.0000000251    1.8414083886
   3.6125249718    1.8062636939    1.8414083886
   1.8062625616    3.6125273870    5.3819060425
   0.0000001398    1.8062636923    5.3819060425
   1.8062625256    1.8062636915    7.1486566305
   1.8062624897    0.0000000207    8.9224036964
   0.0000001389    1.8062636907    8.9224036964
   0.0000001578    0.0000000117   10.7638120851
