Ni4 Zr8 Ta8 W12 
1.0
9.0960839601204473e+00 0.0000000000000000e+00 0.0000000000000000e+00 
8.6516406478978162e-08 6.6815403581852859e+00 0.0000000000000000e+00 
-2.0814517890769027e-08 -2.0770063552467297e-08 9.0960973895978032e+00 
Ni Zr Ta W 
4 8 8 12 
Cartesian
   4.3909344321    1.5229568960    2.4311321415
   6.9791705286    0.1474295188    2.4311321415
   4.3909343994    0.1474295039    8.9389895955
   6.9791705315    1.5229568811    8.9389895955
   2.3067032754    5.1008282115    4.5153664169
   4.6255224622    3.0196486678    0.0774772830
   6.7445825610    3.0196486629    2.1965437898
   9.0634017622    3.2510972156    4.5153664169
   6.7445825958    5.3322767796    0.0774773739
   4.6255224873    5.3322767748    2.1965437898
   2.3067032461    3.2510972103    6.8547553201
   9.0634017808    5.1008282061    6.8547553201
   2.3189829705    3.2862220785    2.2383858378
   2.3189829986    5.0657033640    0.0356404198
   9.0511220596    3.2862220835    0.0356404198
   9.0511220776    5.0657033590    2.2383858378
   4.5836804693    3.2862220733    4.5030866854
   6.7864245684    5.0657033538    4.5030866854
   6.7864245400    3.2862220679    6.8670350516
   4.5836804869    5.0657033484    6.8670350516
   2.2111215897    1.5651641919    0.0272355348
   2.2111215657    0.1052242332    2.2467906318
   2.3022825330    1.5757343785    4.5197871202
   0.0629023326    0.1052242383    0.0272354438
   0.0629023465    1.5651641869    2.2467906318
   9.0678224181    0.0946493541    4.5197871202
   2.3022825084    0.0946493488    6.8503346168
   4.5752756462    0.1052242278    4.6109482082
   6.7948293044    1.5651641815    4.6109482082
   9.0678224320    1.5757343732    6.8503346168
   4.5752756602    1.5651641766    6.7591735287
   6.7948292806    0.1052242229    6.7591735287
