Ta1 Nb1 Al6                             
   1.00000000000000     
     3.8545526617801866    0.0000000000000000   -0.0000000000000000
     0.0000000000000000    3.8545526617801866   -0.0000000000000000
    -0.0000000000000000    0.0000000000000000    8.6003286837220951
   Ta   Nb   Al
     1     1     6
Direct
  0.5000000000000000  0.5000000000000000  0.5000000000000000
 -0.0000000000000000  0.0000000000000000 -0.0000000000000000
  0.5000000000000000  0.5000000000000000 -0.0000000000000000
 -0.0000000000000000  0.0000000000000000  0.5000000000000000
 -0.0000000000000000  0.5000000000000000  0.2506083762343140
  0.5000000000000000  0.0000000000000000  0.7493916237656861
  0.5000000000000000 -0.0000000000000000  0.2506083762343140
  0.0000000000000000  0.5000000000000000  0.7493916237656861
 
  0.00000000E+00  0.00000000E+00  0.00000000E+00
  0.00000000E+00  0.00000000E+00  0.00000000E+00
  0.00000000E+00  0.00000000E+00  0.00000000E+00
  0.00000000E+00  0.00000000E+00  0.00000000E+00
  0.00000000E+00  0.00000000E+00  0.00000000E+00
  0.00000000E+00  0.00000000E+00  0.00000000E+00
  0.00000000E+00  0.00000000E+00  0.00000000E+00
  0.00000000E+00  0.00000000E+00  0.00000000E+00
