Al6 Zr1 Nb1 
1.0
3.9561960305474853e+00 0.0000000000000000e+00 0.0000000000000000e+00 
-7.0060622352172259e-17 3.9561960305474848e+00 0.0000000000000000e+00 
2.0230741765793634e-17 -1.1936137641818217e-16 8.8391049192848090e+00 
Al Zr Nb 
6 1 1 
Cartesian
   1.9780980153    1.9780980153    8.8391049193
   3.9561960305    3.9561960305    4.4195524596
   3.9561960305    1.9780980153    2.1401152440
   1.9780980153    3.9561960305    6.6989896753
   1.9780980153    3.9561960305    2.1401152440
   3.9561960305    1.9780980153    6.6989896753
   1.9780980153    1.9780980153    4.4195524596
   3.9561960305    3.9561960305    8.8391049193
