Al16 Cu4 Nb8 W4 
1.0
7.6556848599730873e+00 0.0000000000000000e+00 0.0000000000000000e+00 
0.0000000000000000e+00 8.1472410290672190e+00 0.0000000000000000e+00 
0.0000000000000000e+00 0.0000000000000000e+00 8.1972518394348430e+00 
Al Cu Nb W 
16 4 8 4 
Cartesian
   0.0187767920    4.0109030531    4.0784524829
   3.8436590749    0.0270983754    4.0654762333
   1.9545958687    0.0596326716    2.0804543196
   5.7259470001    2.0097125336    4.0654762333
   7.6150102063    1.9771806002    2.0804543196
   1.8951418200    6.1731482332    4.0784524829
   1.8951418200    4.0109030531    6.1681123164
   3.7749263362    4.0160358149    4.1278573198
   3.8436590749    2.0097125336    6.1810885660
   1.9545958687    1.9771806002    8.1661104797
   5.7946797387    4.0160358149    6.1187074795
   5.7259470001    0.0270983754    6.1810885660
   7.6150102063    0.0596326716    8.1661104797
   0.0187767920    6.1731482332    6.1681123164
   3.7749263362    6.1680154714    6.1187074795
   5.7946797387    6.1680154714    4.1278573198
   3.8059931054    1.8570495312    2.0780607221
   5.7636129696    0.1797599113    2.0780607221
   3.8059931054    0.1797599113    8.1685040772
   5.7636129696    1.8570495312    8.1685040772
   1.9548331949    3.9632579876    2.0844791702
   5.6473001495    3.9759921253    2.0989473197
   7.6147728801    6.2207932988    2.0844791702
   3.9223059255    6.2080591611    2.0989473197
   7.6147728801    3.9632579876    8.1620856290
   3.9223059255    3.9759921253    8.1476174795
   1.9548331949    6.2207932988    8.1620856290
   5.6473001495    6.2080591611    8.1476174795
   0.0299311249    0.0630321894    4.1499079272
   1.8839874872    1.9737750534    4.1499079272
   0.0299310483    1.9737750534    6.0966568721
   1.8839874872    0.0630321894    6.0966568721
