Ta1 W3
1.0
   0.0000000000000000    3.1988989999999999    3.1988989999999999
   3.1988989999999999   -0.0000000000000000    3.1988989999999999
   3.1988989999999999    3.1988989999999999    0.0000000000000000
Ta W
1 3
direct
   0.7500000000000000    0.7500000000000000    0.7500000000000000 Ta
  -0.0000000000000000   -0.0000000000000000    0.0000000000000000 W
   0.5000000000000000    0.5000000000000000    0.5000000000000000 W
   0.2500000000000000    0.2500000000000000    0.2500000000000000 W
