Al1 
1.0
2.7990491817900209e+00 0.0000000000000000e+00 0.0000000000000000e+00 
-9.3301640365202765e-01 2.6389689039679345e+00 0.0000000000000000e+00 
-9.3301634710885428e-01 -1.3194843720198448e+00 2.2854139721201485e+00 
Al 
1 
Cartesian
  -0.9330130565   -1.3194796772    2.2854139721
