Al4 Cu15 
1.0
3.7014914644757240e+00 0.0000000000000000e+00 0.0000000000000000e+00 
0.0000000000000000e+00 3.7014947989178979e+00 0.0000000000000000e+00 
0.0000000000000000e+00 0.0000000000000000e+00 1.7723818029899448e+01 
Al Cu 
4 15 
Cartesian
   0.0000000079    3.7014947989    3.3795776219
   0.0000000108    3.7014947989    7.0351150906
   3.7014914645    3.7014947989   10.6887029393
   3.7014914645    0.0000000211   14.3442404080
   1.8507457322    1.8507473995    3.3986130025
   1.8507457322    0.0000000330    1.5990978065
   0.0000000267    1.8507473995    1.5990978065
   1.8507457322    1.8507473995    0.0000010707
   1.8507457322    1.8507473995    7.0382167588
   1.8507457322    3.7014947989    5.2096681764
   3.7014914645    1.8507473995    5.2096681764
   1.8507457322    3.7014947989    8.8619090149
   3.7014914645    1.8507473995    8.8619090149
   1.8507457322    1.8507473995   10.6856012711
   1.8507457322    3.7014947989   12.5141498535
   3.7014914645    1.8507473995   12.5141498535
   1.8507457322    1.8507473995   14.3252050274
   1.8507457322    0.0000000190   16.1247219958
   0.0000000335    1.8507473995   16.1247219958
