Converted from final.data
1.0
15.1813635238982201 0.0000000000000000 0.0000000000000000
0.2557019131707375 15.1341932957645806 0.0000000000000000
-0.4294759958877000 -0.1063108830370957 35.3643291936706632
Al W Ni Zr
21 9 16 18
Direct
0.1915834787816003 0.2464918596842179 0.1302021832222860
0.8387459674460355 0.0314090568675586 0.1489755939398938
0.9896152405903419 0.3656464628718077 0.1473493476183569
0.8885049910443167 0.1400142168280460 -0.0154631376212260
0.5652256716080066 0.3165101490800385 0.2646503523091627
-0.0204352733372393 0.1715210102397985 0.0518306318594198
0.8633534694897036 0.0999909891049983 0.4302605112949668
0.6366868838906293 0.3255301965264087 0.4156433574364337
0.7977025080160843 0.2384978842346610 0.3950089576101196
0.9972139273938233 0.3982496649821380 0.2661131483617900
0.0738820720470331 0.1474827284319912 0.3627023628487943
0.3006212062858316 0.4365321909388727 0.3604261227229735
-0.0210462927622022 0.9467944663047416 0.2317711322944393
0.8364887694604027 0.1078055501719447 0.2306769066414514
-0.0300668829279790 0.0306530234227000 0.0960746547723657
0.1313504188517688 0.5374687424192117 0.9705049276924204
0.1987140920253235 0.3856716748200068 0.0448897759028290
0.7236330227868689 0.1321906211306668 0.1027734701678933
0.8576562777372370 0.3818173005532715 0.4260793757693518
0.9762161321270157 0.5016410598574390 0.3651308075254454
0.9835628523349855 0.2174893633831442 0.2106772904290225
0.0231526304609543 0.2367211241191891 0.4842461268021788
0.0207271003731255 0.1121673412907844 0.4393314029020728
0.1646866814903075 0.0602841140810901 0.9624942148695689
0.9786869473752423 0.0443601680307155 0.1884502081911011
0.0531077135371061 0.1464085337955866 -0.0268576399159309
0.3262464970620193 0.4974507781151425 0.9675305724190810
0.2211288068554360 0.2414865903099424 0.9771625503205164
-0.0160222431275906 -0.0077957162628327 0.0251939401145828
0.4015647056610705 0.3529804323428907 0.9752799370952048
0.5945088780404423 0.2807035758651080 0.9016755129417827
0.1328175504738938 0.4036106945803213 0.1090375820830191
0.7032278007402891 0.5717641543447577 0.3435086412139133
0.7660116212733064 0.9021069816952660 0.2903538488634909
-0.0327882871211856 0.7520654370613035 0.2973469350992659
0.4937576735514332 0.0769554694651805 0.1827565126945676
0.8770134398334922 0.3175144059529045 0.1056871605473193
-0.0173487833329269 0.6482114267533073 0.0583482266468994
0.7114301342304454 0.1340351291393699 0.9687855371425156
0.8529520542709982 0.2255537921157273 0.1701037486862178
0.8685987395558339 0.2228771732268854 0.0428918175535674
0.1240874361240911 0.2433015924263581 0.0706201017755392
0.8162056789907798 0.2521129841515231 0.9786184314108618
0.7243599741511973 0.9765096346975481 0.1186939077531273
-0.0066667087437869 0.4996686335769077 0.1182207456083738
0.0713672934426378 0.2308264866487321 0.9442576475574993
-0.0067065914108016 0.3601674722750851 0.0673117765980685
0.0097238404087310 0.2998705357767216 0.4054494732653239
0.8438439170218069 0.0149759417493362 0.0543048046393504
0.1164802970167917 0.6607556805412834 0.4097203504601252
0.1127848143250031 0.3571163659402050 0.2079908084110078
0.8581204279563848 0.5332829027483905 0.2874791079349394
0.8945069438172742 0.3516471693625349 0.3387901269764319
0.6922850297893338 0.2266610715779553 0.2195061533629268
0.1363187138556490 0.1408275235681003 0.2025581526709578
0.0377291279725989 0.1072448114638065 0.2800399933869297
0.1982518770393120 0.2166007626913312 0.4858770326502087
0.8317622057945384 0.3531194633611699 0.2245992943300183
0.9353675609247503 0.1377529186545507 0.3468293289321914
0.8107913983912811 0.5700424082094490 0.3927013971024157
0.0129379321492521 0.1900299695709101 0.1434746676934581
0.8762283778528585 0.2380542706261694 0.4821066960507328
0.4274066890643126 0.0245583903825474 0.0517038897195476
0.1968950212375926 0.0592853691874288 0.4168267284604742
