Zr2 Cu4
1.0
   2.3399993200000000   -4.2283437399999997    0.0000000000000000
   2.3399993200000000    4.2283437399999997    0.0000000000000000
  -0.0000000000000000    0.0000000000000000    4.6075151400000003
Zr Cu
2 4
direct
   0.2339649800000000    0.2339649800000000    0.7500000000000000 Zr
   0.7660350200000000    0.7660350200000000    0.2500000000000000 Zr
   0.5339631800000000    0.8957149000000000    0.7500000000000000 Cu
   0.8957149000000000    0.5339631800000000    0.7500000000000000 Cu
   0.1042850999999990    0.4660368200000000    0.2500000000000000 Cu
   0.4660368200000000    0.1042850999999990    0.2500000000000000 Cu
