Zr3 Al1                                 
   1.00000000000000     
     4.3804006211973352   -0.0000000000000000   -0.0000000000000000
    -0.0000000000000000    4.3803995886151235   -0.0000000000000000
    -0.0000000000000000    0.0000000000000000    4.3804016537795478
   Zr   Al
     3     1
Direct
  0.0000000000000000  0.5000000000000000  0.5000000000000000
  0.5000000000000000  0.5000000000000000  0.0000000000000000
  0.5000000000000000  0.0000000000000000  0.5000000000000000
  0.0000000000000000  0.0000000000000000  0.0000000000000000
 
  0.00000000E+00  0.00000000E+00  0.00000000E+00
  0.00000000E+00  0.00000000E+00  0.00000000E+00
  0.00000000E+00  0.00000000E+00  0.00000000E+00
  0.00000000E+00  0.00000000E+00  0.00000000E+00
