fcc_Al0_Cu0_Nb4_Ni0_Ta0_W4_Zr24         
   1.00000000000000     
     8.8346926035940818    0.0000000000000000   -0.0000000000000000
     0.0000000000000000    8.8346926035940818    0.0000000000000000
     0.0000000000000000   -0.0000000000000000    8.8346926035940818
   Nb   W    Zr
     4     4    24
Direct
  0.5054799014896408  0.0054799014896409  0.0054799014896409
  0.7445200985103592  0.2445200985103591  0.0054799014896409
  0.5054799014896408  0.2445200985103591  0.2445200985103591
  0.7445200985103592  0.0054799014896409  0.2445200985103591
  0.0153318406110771  0.5153318406110767  0.5153318406110767
  0.2346681593889229  0.7346681593889233  0.5153318406110767
  0.0153318406110771  0.7346681593889233  0.7346681593889233
  0.2346681593889229  0.5153318406110767  0.7346681593889233
  0.0010058186840226 -0.0042525059749517  0.5010058186840225
  0.2489941813159773  0.2542525059749517  0.5010058186840225
  0.0010058186840226  0.2542525059749517  0.7489941813159775
  0.2489941813159773 -0.0042525059749517  0.7489941813159775
 -0.0024944618146546 -0.0026448523399455 -0.0026448523399455
  0.2524944618146546  0.2526448523399455 -0.0026448523399455
 -0.0024944618146546  0.2526448523399455  0.2526448523399455
  0.2524944618146546 -0.0026448523399455  0.2526448523399455
  0.0010058186840226  0.5010058186840225 -0.0042525059749517
  0.2489941813159774  0.7489941813159775 -0.0042525059749517
  0.0010058186840226  0.7489941813159775  0.2542525059749517
  0.2489941813159773  0.5010058186840225  0.2542525059749517
  0.4973551476600545 -0.0026448523399455  0.4975055381853454
  0.7526448523399455  0.2526448523399455  0.4975055381853454
  0.4973551476600545  0.2526448523399455  0.7524944618146546
  0.7526448523399455 -0.0026448523399455  0.7524944618146546
  0.4957474940250483  0.5010058186840225  0.5010058186840225
  0.7542525059749516  0.7489941813159775  0.5010058186840225
  0.4957474940250483  0.7489941813159775  0.7489941813159775
  0.7542525059749516  0.5010058186840225  0.7489941813159775
  0.4973551476600545  0.4975055381853454 -0.0026448523399455
  0.7526448523399455  0.7524944618146546 -0.0026448523399455
  0.4973551476600545  0.7524944618146546  0.2526448523399455
  0.7526448523399455  0.4975055381853454  0.2526448523399455
 
  0.00000000E+00  0.00000000E+00  0.00000000E+00
  0.00000000E+00  0.00000000E+00  0.00000000E+00
  0.00000000E+00  0.00000000E+00  0.00000000E+00
  0.00000000E+00  0.00000000E+00  0.00000000E+00
  0.00000000E+00  0.00000000E+00  0.00000000E+00
  0.00000000E+00  0.00000000E+00  0.00000000E+00
  0.00000000E+00  0.00000000E+00  0.00000000E+00
  0.00000000E+00  0.00000000E+00  0.00000000E+00
  0.00000000E+00  0.00000000E+00  0.00000000E+00
  0.00000000E+00  0.00000000E+00  0.00000000E+00
  0.00000000E+00  0.00000000E+00  0.00000000E+00
  0.00000000E+00  0.00000000E+00  0.00000000E+00
  0.00000000E+00  0.00000000E+00  0.00000000E+00
  0.00000000E+00  0.00000000E+00  0.00000000E+00
  0.00000000E+00  0.00000000E+00  0.00000000E+00
  0.00000000E+00  0.00000000E+00  0.00000000E+00
  0.00000000E+00  0.00000000E+00  0.00000000E+00
  0.00000000E+00  0.00000000E+00  0.00000000E+00
  0.00000000E+00  0.00000000E+00  0.00000000E+00
  0.00000000E+00  0.00000000E+00  0.00000000E+00
  0.00000000E+00  0.00000000E+00  0.00000000E+00
  0.00000000E+00  0.00000000E+00  0.00000000E+00
  0.00000000E+00  0.00000000E+00  0.00000000E+00
  0.00000000E+00  0.00000000E+00  0.00000000E+00
  0.00000000E+00  0.00000000E+00  0.00000000E+00
  0.00000000E+00  0.00000000E+00  0.00000000E+00
  0.00000000E+00  0.00000000E+00  0.00000000E+00
  0.00000000E+00  0.00000000E+00  0.00000000E+00
  0.00000000E+00  0.00000000E+00  0.00000000E+00
  0.00000000E+00  0.00000000E+00  0.00000000E+00
  0.00000000E+00  0.00000000E+00  0.00000000E+00
  0.00000000E+00  0.00000000E+00  0.00000000E+00
