Ni20 Zr14 
1.0
7.6178764857680790e+00 0.0000000000000000e+00 0.0000000000000000e+00 
-2.1336946533812347e+00 7.3129563131875948e+00 0.0000000000000000e+00 
-6.2630139158400998e-08 -2.5815296050671858e-08 9.1520879340810168e+00 
Ni Zr 
20 14 
Cartesian
   4.9226235431    6.5641388359    0.9292847047
   4.1423928391    2.5116421533    1.9076429048
  -0.3018461778    2.6072736757    4.5219734315
   4.2333150532    2.6328836410    7.2444450293
   6.1266522809    1.0235944876    2.6684010622
  -0.7333927356    6.1681203078    2.6684010622
   3.3036491614    4.4052956157    5.5053286717
   3.0439347154    1.0492044425    9.0980173986
   1.3417889306    4.8013141340    7.2444450293
  -0.6424705111    6.2893617997    6.4836868718
   0.1546319511    3.2159675815    9.0980173986
   2.4402470543    6.2637518449    0.0540698949
   5.7860256622    4.7056826117    4.6301145026
   2.8967228978    6.8724457507    4.6301145026
   0.5615582266    0.7488174515    8.2228032294
   2.1805326083    2.9076606717    3.6467592624
   5.3295498187    4.0969887059    0.0540709931
   2.5874597254    0.4405076115    4.5219734315
   6.2175745054    1.1448359796    6.4836868718
   1.2508667165    4.6800726464    1.9076429048
  -0.2259320146    5.8822641660    0.0000001674
   4.6498590078    2.2257933094    4.5760439670
   1.7181667041    2.2911126304    6.2934515720
   3.7660150656    5.0218436570    2.8586363620
   5.7100235866    1.4307140603    9.1520879341
  -1.0559500758    3.6710089814    6.8640659506
   6.5401320741    3.6419473059    2.2880219835
   4.4602576125    5.9475907838    7.4346803291
   2.7420463631    3.6565000696    9.1520879341
   1.6643465045    7.2984254625    2.2880219835
   0.8343227619    5.0871629779    4.5760439670
   3.8198348598    0.0145322143    6.8640659506
   1.0239241573    1.3653655036    1.7174076050
   7.6172974958   -0.0000000129    4.5760439670
