Ta30
1.0
  10.2244128700000001   -0.0000113000000000    0.0000003000000000
  -0.0000113100000000   10.2243991600000008   -0.0000008800000000
   0.0000001600000000    0.0000000600000000    5.3030315000000003
Ta
30
direct
   0.9654549900000000    0.3718037300000000    0.0000001100000000 Ta
   0.2606604800000000    0.9324534100000000    0.5000000500000000 Ta
   0.3187728700000000    0.6812151900000000    0.7493286100000001 Ta
   0.1281930300000000    0.4654865400000000    0.4999999100000000 Ta
   0.8717948800000000    0.5345101600000000    0.4999998300000000 Ta
   0.8949662400000000    0.1050675500000000   -0.0000001400000000 Ta
   0.8188031800000000    0.8187697300000000    0.7506683200000001 Ta
   0.1811984400000000    0.1812115500000000    0.2493289200000000 Ta
   0.7393386400000000    0.0675556800000000    0.5000000900000000 Ta
   0.9324613400000000    0.2606814800000000    0.4999999600000000 Ta
   0.3949612700000000    0.3949743700000000    0.5000000300000000 Ta
   0.5000057400000000    0.5000012700000001    0.0000000200000000 Ta
   0.5345052200000000    0.8717936800000000    0.5000000500000000 Ta
   0.5675154600000000    0.7606520800000001   -0.0000000700000000 Ta
   0.0345326300000000    0.6281992600000000    0.0000000400000000 Ta
   0.6050484200000000    0.6050225500000000    0.5000000400000000 Ta
   0.3187729100000000    0.6812152100000000    0.2506714600000000 Ta
   0.6812317400000000    0.3188055900000000    0.2506754800000000 Ta
   0.0000082400000000    0.0000017900000000    0.4999999800000000 Ta
   0.8188031000000000    0.8187692999999990    0.2493319700000000 Ta
   0.6812317200000000    0.3188056500000000    0.7493244700000000 Ta
   0.4324811600000000    0.2393419500000000   -0.0000001200000000 Ta
   0.1811984400000000    0.1812115000000000    0.7506710900000000 Ta
   0.7606717800000000    0.5675049900000000   -0.0000001900000000 Ta
   0.3717931400000000    0.9654606800000001    0.0000000900000000 Ta
   0.0675440300000000    0.7393205800000000    0.5000000200000000 Ta
   0.6281935700000000    0.0345349300000000   -0.0000000600000000 Ta
   0.4654792700000000    0.1281987700000000    0.5000000300000000 Ta
   0.2393249700000000    0.4324875300000000    0.0000000600000000 Ta
   0.1050531000000000    0.8949433100000000   -0.0000000600000000 Ta
