Al1 Ni1 
1.0
2.8901074589134303e+00 0.0000000000000000e+00 0.0000000000000000e+00 
-1.4585198005623187e-04 2.8901287574706704e+00 0.0000000000000000e+00 
-2.8437357924529801e-08 -3.9877526922906317e-09 2.8901686764525434e+00 
Al Ni 
1 1 
Cartesian
   2.8899615785    2.8901287535    2.8901686765
   1.4449807892    1.4450643767    1.4450843382
