Al4
1.0
   2.8270768500000001   -0.0000000000000000   -0.0000000000000000
  -1.4135384300000000    2.4483207700000000    0.0000000000000000
  -0.0000000000000000   -0.0000000000000000    9.1859930700000003
Al
4
direct
  -0.0000000000000000   -0.0000000000000000    0.0000000000000000 Al
   0.3333330000000000    0.6666670000000000    0.2500000000000000 Al
  -0.0000000000000000   -0.0000000000000000    0.5000000000000000 Al
   0.6666679999999990    0.3333330000000000    0.7500000000000000 Al
