Al3 Cu6 Zr3 Nb6 Ta3 W3 
1.0
8.4222953673536658e+00 0.0000000000000000e+00 0.0000000000000000e+00 
-1.1309713245559914e+00 5.3344697231963023e+00 0.0000000000000000e+00 
2.7390123443571024e-01 1.4945406908351005e-01 8.8822551957939027e+00 
Al Cu Zr Nb Ta W 
3 6 3 6 3 3 
Cartesian
   0.7221169163    2.4651310527    4.6000489079
  -0.3037115551    3.9506382354    6.5917436372
   2.5487867340    3.8726084387    6.4968012114
   2.7509864218    3.9601259296    2.3306593521
  -0.3343324074    3.6247455006    2.2163891390
   4.3458609574    1.1418530673    2.1237649818
   4.3305001738    5.2300738882    0.1613550479
   6.8401042324    1.1000822497    2.1899111363
   0.5169858698    2.6804478079    8.6708664044
   1.4669114600    1.5075517821    2.0054799894
   1.6207289626    4.8437951898    0.1648972913
   7.0279145588    5.0795371793    0.1687672898
   1.4174846912    5.2052657772    4.2997576242
   3.5185108062    2.4303460228    4.3636032745
   7.0543559170    5.1844899582    4.2399534000
   6.3392489502    2.5196210865    4.3980042489
   1.8014499105    1.1730451048    6.8286422655
   5.3392201923    3.8850980276    6.8053707569
   4.2880004077    5.1371667687    4.4212313463
   4.5325094292    1.2126047306    6.7528233352
   7.3393387296    1.2331207876    6.6618157484
   3.4459539488    2.6110172596    0.0296253410
   5.2830489557    3.7195234087    2.2015113616
   6.0809917652    2.4092487416    0.0995194519
