W8 
1.0
5.0500078480808011e+00 0.0000000000000000e+00 0.0000000000000000e+00 
-1.5762493646386883e-17 5.0500078480973301e+00 0.0000000000000000e+00 
-9.3589806025622271e-18 0.0000000000000000e+00 5.0500078480890629e+00 
W 
8 
Cartesian
   1.2625019620    0.0000000000    2.5250039240
   3.7875058861    0.0000000000    2.5250039240
  -0.0000000000    2.5250039240    1.2625019620
  -0.0000000000    2.5250039240    3.7875058861
   2.5250039240    3.7875058861    0.0000000000
   2.5250039240    1.2625019620    0.0000000000
   5.0500078481    0.0000000000    0.0000000000
   2.5250039240    2.5250039240    2.5250039240
