Cu1 
1.0
2.5660834203965543e+00 0.0000000000000000e+00 0.0000000000000000e+00 
1.2830260969310359e+00 2.2222937519326207e+00 0.0000000000000000e+00 
1.2830255822935077e+00 7.4075500131154937e-01 2.0951981953835035e+00 
Cu 
1 
Cartesian
   1.2831517467    2.2222181940    0.0000000002
