Zr1 Nb1 
1.0
2.9757680542669256e+00 0.0000000000000000e+00 0.0000000000000000e+00 
-9.7440515365256364e-01 2.8117131253324219e+00 0.0000000000000000e+00 
-2.7937487404757046e-16 1.1654174650026275e-15 4.8100279520422919e+00 
Zr Nb 
1 1 
Cartesian
   1.0006814503    1.4058565627    2.4050139760
  -0.9741430477    2.8117131253    4.8100279520
