Converted from final.data
1.0
14.6914194043848809 0.0000000000000000 0.0000000000000000
-0.0236005078452085 15.6365687280438106 0.0000000000000000
-0.1617785539876634 0.2557850657231125 31.2059652700082992
Al Zr W Ta Ni
18 4 17 18 3
Direct
0.1474725817052112 0.3362853664228777 0.0139577416545067
0.3811040481014937 0.5049267449778267 -0.0121929098586706
0.4636015606916654 0.0745036496908749 0.1563717222770375
0.1186487522514750 0.0941978465885097 0.0668843297437755
0.2458789889408271 0.3564923693050585 0.1482046907266952
0.1724237653682522 -0.0295511283118090 0.3670883528791553
0.5140170646660563 0.2164279378069741 0.2237220145897816
0.2516956136834737 0.0140036162840162 0.2154250531257620
0.4171040772162125 0.3260716784333447 0.0913939772744263
0.8275182369689509 0.3075808910365951 -0.0363465821138931
0.3377498890376984 0.1637732680480980 0.2272101670920465
0.2834724341997755 0.1875207292645958 0.3689989852702897
0.2989571380622299 0.9324875380957252 0.3096683014826128
0.0678851479796982 0.5705428944033212 0.2993729332179903
0.3477301420044279 0.4892695851628530 0.2746564906443114
0.4610624772903777 -0.0000145239210706 0.3264544161698494
0.1366929252059001 0.3125965721626148 0.2121825069593139
0.4313178372752334 0.1599247172233410 0.0840129387395284
0.2726216933765974 0.0874865981009019 0.1334228941959839
0.0892418904990163 -0.0286660197709283 0.1479416256880118
0.4287358953150918 0.1971343271456069 0.3087953487135792
0.3123766813821662 0.4850358264661231 0.4047522736710633
0.0019441048682474 0.4476921588189312 0.0356798170895707
0.2952212997529757 0.0861004014331852 0.0380003074663183
0.0004619798043512 0.1082145066610375 -0.0047465014697568
0.3555375255086262 0.2410616103799956 0.0129903817425506
0.2331157729728655 0.2517688259530254 0.2862194441849687
0.0178353427289071 0.4224049980463590 0.2455906542436614
0.2122968841125925 0.9909773321135936 0.0798570685131007
0.9761159751323902 0.0978347290785534 0.1602099363475480
0.0936052459673307 0.3751613064384593 0.0934708968649452
0.3340362531467917 0.9596392494258926 0.1589314401914832
0.3173581356401639 0.3695485159227302 0.3253524430099712
0.1714664281099231 0.1011947520922241 0.4248324779938619
0.1713795048901673 0.3332900337838570 0.3612864007456864
0.1938403624942205 0.5952408297021928 0.4723865855702497
0.1769674299426273 0.3928269709809980 0.4456130991511573
0.3384302903799647 0.1030308806124982 0.4639597568774986
0.0698104668978215 0.2694814550218380 0.2883611266979672
0.0040980758568737 0.2413175955459909 0.0609143011773351
-0.0281806564996536 0.2953094792382823 -0.0172134149691927
0.5338550717242494 0.0121609034782547 0.4247850925209972
0.3976764902325888 0.2747362396134083 0.4794514055697277
0.2364425702013714 0.2467813488020038 0.0790891852458972
0.4383386698038386 0.0212448973717748 0.2367207503683876
0.3462935232349221 0.3440090932374006 0.2252905831763975
-0.0397042775260961 0.1151655011524015 0.3996271648519784
0.3434643029553515 -0.0017797306723762 0.3943126460081764
0.1045138977269831 0.1371589875043819 0.3434013991078531
0.1764652031161022 0.4341481056216068 0.2798206238573139
0.0203059583080389 0.4236562039750966 0.4135852620215464
0.6275856588419060 0.0514317533847745 0.1981151696681424
0.8791755700542708 0.1609590821299749 0.0148579691505119
0.8285635651889609 0.2281875096065071 0.3519615494294437
0.7191526569738190 -0.0327605910479683 0.4167598569514204
0.8601767392979462 0.3920425810892329 0.4865249601002530
0.9937768500177073 0.2317324055542270 0.2167153223743120
0.3995905896701975 0.2280955113780215 0.1538318660680111
0.2354904816313435 0.2210630222629467 0.1787302428272800
0.2374298407612367 0.2543364264559621 0.4350477495060407
