Converted from final.data
1.0
15.1638195418630950 0.0000000000000000 0.0000000000000000
0.1586204217042460 15.6279324003729911 0.0000000000000000
0.1287070002618189 -0.2859957268562278 33.0247489101323453
W Ni Zr Nb Ta
3 13 7 3 36
Direct
0.1757511524331765 0.9641188159838736 0.1868211395898797
0.1237327098062862 0.2752996884405090 -0.0283403256324548
0.1537680129207097 0.8759929119259432 0.2598867032826983
0.5596594546763745 0.9741254592032227 0.0747279521221983
0.0013362966593503 0.3954061129168394 0.1357402099601412
0.4619250944804277 0.9796513588255360 -0.0095126747021431
-0.0159056935989902 0.1575219539397744 -0.0238475781852346
0.1680303464533892 0.3219767215354127 0.4373647377057379
0.5248840962113006 0.9899209532552478 0.2053658906486836
0.3848514505001466 0.1306560760830956 0.4076420125733021
0.4170495647629990 0.9616648661361031 0.2596710270234256
0.4488331026479089 0.6993099296331743 0.2604265272453443
0.3647904010057055 0.3167395423648972 0.4206731092918968
0.4670539803953572 0.2126568206839902 0.1251306455939127
0.2686638257523151 0.4354247992900113 0.2124881171661196
0.6710138481852289 0.3588171406118495 0.0770462388850060
0.4591364072430654 0.1001989416149437 0.2499837100719112
0.9675236619746376 0.1788559862530232 0.3394738479871692
0.5985967662807286 -0.0071989026472860 0.9787698630638811
0.0453960019585864 0.2396001673171019 0.1606996604645884
0.9497052128208598 0.3541029334396582 0.2042893376224165
0.9558612137949587 0.9007265864140940 -0.0334599864349112
0.7283730965366134 0.8265056469970183 0.2593445213636249
0.0941416563359864 0.3043725903234650 0.0654492991791926
0.7688637119933618 0.2218493076357781 0.0954231904955569
0.4714857667683139 0.6526026385872297 0.3950623661386247
0.3789485592739564 0.9931600427635422 0.0648245142444988
0.1873727897712622 0.1725081914370876 0.1151133819869453
0.9789931621588895 0.0087686485771368 0.3125260327057568
0.0111523245208687 0.0061215236619407 0.4031185017316403
0.1761775371839590 0.7518561410968446 0.1940763984226198
0.2845974043155077 0.9107829083133738 0.3132336190720402
0.3449185145418979 0.1684544647924053 0.1665326993914849
0.3894425002528339 0.0531971398644372 0.3259401685339435
0.2549312184057450 -0.0037852936576875 0.2701484778057344
0.4588460841330783 0.9276414521548045 0.3442673035386356
-0.0104381545279267 0.1221918987700198 0.2252126165691006
0.2750498506713275 0.2155908777205491 0.3596515844905911
0.0876160292888203 0.9076647015635330 0.4168785334061227
0.2882663353551901 0.1753153328149429 0.2802942817940613
0.9513896452309115 -0.0304701548130903 0.1900328249933093
0.9802880958677360 0.2771347714980227 0.0202253292687097
0.9244073746890737 0.1400004376066307 0.1473984434504353
0.2541396207075349 0.3211954303062451 0.0295703608503733
0.1914793989008280 0.1107472535154359 0.2132601007481194
0.1452362228788868 0.0014536736249094 0.0712173870515079
0.0290762054043928 0.8906750009896282 0.0470076856124941
0.3646728871774511 -0.0244857165155457 0.1953912283205198
0.3457469671919224 0.1507466450346720 0.0642162532361010
-0.0164118514289838 0.0090916408267767 0.0103661293859087
0.0892969775313204 0.0373710717157002 0.1532359342738149
0.3089153306550189 0.1845368508116421 -0.0232681439054103
0.2594691143561864 0.3223194309699491 0.1290940942540400
0.2883573817067880 0.0304289543122346 -0.0001103941360555
0.4953916050938662 0.0853782592345524 0.0333647283986755
0.5602970052809777 0.2469740758400015 0.0623766328049828
0.1523561181308560 0.9738719295439487 -0.0192455132894063
0.2765223205885126 0.0058343620331557 0.1224194781725626
0.1380362488614002 0.1026602060633286 0.9838519826451095
0.2657312951148051 0.9072151358116943 0.4030522940436843
0.1055398234776393 0.1543647755498079 0.3971897235876757
0.1027672598300822 0.2826616657594295 0.3294020152463376
