Al5 Ni2 Zr1 
1.0
4.0315426373881476e+00 0.0000000000000000e+00 0.0000000000000000e+00 
1.9908624617404151e-08 4.0315422728124251e+00 0.0000000000000000e+00 
-2.0145581176510396e+00 -2.0145576675299628e+00 7.2880210881591863e+00 
Al Ni Zr 
5 2 1 
Cartesian
   0.0012051479    0.0012054058    7.2880210882
   2.0161905201    0.0003588054    2.1791766095
   0.0003587382    2.0161904149    2.1791766095
   0.0007899880    2.0166257999    5.1088444786
   2.0166258014    0.0007901588    5.1088444786
   0.0005310960    0.0005312183    3.4568104344
   2.0164574752    2.0164574185    3.8312106538
   4.0312564083    4.0312560239    0.0000000342
