Nb1
1.0
   2.7088365699999999    0.0000000000000000   -0.9577172900000001
  -1.3544177799999999    2.3459202499999998   -0.9577172900000001
   0.0000000000000000    0.0000000100000000    2.8731529000000000
Nb
1
direct
  -0.0000000000000000   -0.0000000000000000   -0.0000000000000000 Nb
