Al9 Ni3 Cu6 W6 
1.0
1.0585359798598695e+01 0.0000000000000000e+00 0.0000000000000000e+00 
-1.6621093161137100e-04 5.7137942786398064e+00 0.0000000000000000e+00 
8.6885504921595290e-06 -2.4461171329143330e-01 5.5212472900076399e+00 
Al Ni Cu W 
9 3 6 6 
Cartesian
   1.7641900342    1.3910193137    1.1814420164
   1.7641089389    4.1800769720    1.3104017893
   3.5284515207   -0.0328176773    2.9075992479
  10.5853615816   -0.0328176773    2.9075992479
   5.2925586766    4.1800769720    1.3104017893
   5.2926397719    1.3910193137    1.1814420164
   8.8210895097    1.3910193137    1.1814420164
   8.8210084144    4.1800769720    1.3104017893
   7.0569118439   -0.0328182486    2.9075992479
   1.7641963012    1.2041281502    4.0966219368
   5.2926460390    1.2041281502    4.0966219368
   8.8210957767    1.2041281502    4.0966219368
   3.5283674137    2.8302930528    0.0263245341
   3.5284481006    0.0570005371    0.0736473655
  -0.0000821938    2.8302930528    0.0263245341
  -0.0000014041    0.0570005371    0.0736473655
   7.0568277368    2.8302930552    0.0263244789
   7.0569084237    0.0570005371    0.0736473655
   1.7641131418    4.0631687962    4.1258790261
   3.5283715789    2.7146806509    2.8418301501
   5.2925628795    4.0631687962    4.1258790261
  -0.0000779991    2.7146806509    2.8418301501
   8.8210126173    4.0631687962    4.1258790261
   7.0568319020    2.7146806509    2.8418301501
