Cu-Zr from LAMMPS dump
1.0
19.3646573058010958 0.0000000000000000 0.0000000000000000
-4.4284377418747498 12.0264984913725748 0.0000000000000000
9.1844592312385505 0.4545455574702800 20.3819310196566406
Cu Zr
128 128
Direct
0.0677420000000000 0.3582070000000000 0.1318180000000000
0.1997520000000000 0.3760290000000000 0.1477640000000000
0.3531870000000000 0.4518510000000000 0.0958472000000000
0.3182930000000000 0.1316550000000000 0.1750200000000000
0.1052190000000000 0.1828890000000000 0.2472030000000000
0.1830920000000000 0.0340142000000000 0.2189480000000000
0.0214265000000000 0.2807080000000000 0.2592840000000000
0.1645470000000000 0.1063210000000000 0.3300690000000000
0.2450400000000000 0.2848370000000000 0.3659200000000000
0.1773250000000000 0.3938150000000000 0.4636610000000000
0.2421240000000000 0.4874360000000000 0.3465860000000000
0.4531630000000000 0.3422900000000000 0.3650120000000000
0.4327170000000000 0.2223710000000000 0.4485320000000000
0.4556470000000000 0.1532470000000000 0.3425020000000000
0.0994613000000000 0.1012990000000000 0.6358850000000000
0.0440101000000000 0.3595810000000000 0.5705740000000000
0.2090400000000000 0.2628710000000000 0.5603410000000000
0.3536700000000000 0.3293680000000000 0.5516489999999999
0.1249120000000000 0.1634620000000000 0.7454910000000000
0.4741360000000000 0.2523320000000000 0.5409500000000000
0.4626840000000000 0.2205430000000000 0.6947449999999999
0.0284016000000000 0.4441620000000000 0.8644110000000000
0.0116459000000000 0.0622909000000000 0.8244680000000000
0.0927720000000000 0.3114160000000000 0.8026790000000000
0.3730200000000000 0.3499790000000000 0.7819790000000000
0.2508240000000000 0.3803950000000000 0.8916140000000000
0.2443900000000000 0.3237110000000000 0.7935550000000000
0.1692050000000000 0.4432150000000000 0.8529030000000000
0.0735663000000000 0.3970890000000000 0.9615770000000000
0.4142140000000000 0.1871440000000000 0.8135230000000000
0.3206850000000000 0.1118210000000000 0.9580780000000000
0.3932630000000000 0.3714420000000000 0.8865250000000000
0.4701700000000000 0.0142042000000000 0.8418430000000000
0.3291030000000000 0.3407840000000000 0.9937380000000000
0.0506877000000000 0.5960290000000000 0.1367330000000000
0.1152390000000000 0.5343550000000000 0.0284615000000000
0.3622570000000000 0.7453910000000000 0.1219010000000000
0.2292430000000000 0.6756700000000000 0.2298440000000000
0.4315390000000000 0.6220150000000000 0.0180160000000000
0.3673800000000000 0.8064560000000000 0.0261031000000000
0.1289190000000000 0.5272740000000000 0.1881220000000000
0.4930760000000000 0.8387480000000000 0.0176431000000000
0.1269760000000000 0.8890720000000000 0.3040770000000000
0.0790720000000000 0.7238490000000000 0.4464470000000000
0.3326730000000000 0.9678510000000000 0.3435810000000000
0.2714110000000000 0.5775040000000000 0.4498590000000000
0.3649010000000000 0.6393760000000001 0.3287240000000000
0.4762510000000000 0.9616510000000000 0.3400290000000000
0.0734347000000000 0.7601470000000000 0.6463710000000000
0.0085400100000000 0.6512170000000000 0.5586220000000000
0.3723900000000000 0.5351129999999999 0.5376780000000000
0.1470020000000000 0.6822530000000000 0.6779100000000000
0.4229290000000000 0.8914700000000000 0.5155780000000000
0.3339620000000000 0.6758950000000000 0.5161440000000000
0.3948870000000000 0.8570070000000000 0.6215800000000000
0.1050570000000000 0.5148130000000000 0.7287439999999999
0.4410760000000000 0.5391540000000000 0.6063100000000000
0.1013170000000000 0.7506610000000000 0.8176030000000000
0.1934510000000000 0.7875020000000000 0.8908840000000000
0.0676758000000000 0.5845870000000000 0.9332520000000000
0.1894820000000000 0.9415970000000000 0.9802160000000000
0.3387420000000000 0.8543770000000001 0.9245040000000000
0.4054820000000000 0.5344540000000000 0.8387970000000000
0.3533410000000000 0.5301740000000000 0.9571710000000000
0.4914770000000000 0.5528780000000000 0.8935630000000000
0.6082820000000000 0.2448660000000000 0.2377350000000000
0.8397230000000000 0.2448920000000000 0.0939516000000000
0.9211430000000000 0.2664840000000000 0.1736620000000000
0.8483640000000000 0.0199742000000000 0.0352490000000000
0.6895680000000000 0.1459740000000000 0.4834740000000000
0.7106120000000000 0.4403860000000000 0.2643810000000000
0.7926660000000000 0.3213120000000000 0.4136410000000000
0.7679880000000000 0.3957510000000000 0.3320280000000000
0.8701690000000000 0.2400860000000000 0.2886420000000000
0.8472070000000000 0.1800260000000000 0.4139110000000000
0.8668890000000000 0.0542374000000000 0.3132560000000000
0.9777020000000000 0.1462920000000000 0.3550880000000000
0.6596300000000000 0.3686320000000000 0.6451740000000000
0.5520510000000000 0.3966650000000000 0.6091450000000000
0.7608110000000000 0.3078740000000000 0.6618640000000000
0.7189600000000000 0.1151880000000000 0.7317010000000000
0.9348540000000000 0.4405490000000000 0.5639970000000000
0.8261269999999999 0.1736170000000000 0.6159550000000000
0.8522770000000000 0.4701430000000000 0.7367450000000000
0.8176290000000001 0.0950690000000000 0.5102370000000001
0.6786670000000000 0.4408690000000000 0.7431230000000000
0.9877180000000000 0.1001220000000000 0.7289610000000000
0.5860390000000000 0.4451980000000000 0.8725579999999999
0.8352200000000000 0.0651562000000000 0.7588160000000000
0.6737020000000000 0.4751320000000000 0.9362390000000000
0.5935500000000000 0.1166340000000000 0.8540770000000000
0.9644509999999999 0.4448490000000000 0.7754940000000000
0.8774050000000000 0.0307714000000000 0.8353739999999999
0.9520320000000000 0.1947840000000000 0.9270380000000000
0.5753300000000000 0.9046660000000000 0.1817250000000000
0.6635360000000000 0.6941480000000000 0.0915385000000000
0.5036510000000000 0.9066490000000000 0.1145540000000000
0.7251160000000000 0.8993060000000000 0.1399060000000000
0.7975890000000000 0.8071550000000000 0.0582745000000000
0.7860210000000000 0.7752900000000000 0.1706160000000000
0.8946610000000000 0.8717770000000000 0.2175640000000000
0.9293620000000000 0.5878409999999999 0.0097454600000000
0.8254040000000000 0.6007300000000000 0.1410050000000000
0.8702210000000000 0.5407050000000000 0.2110690000000000
0.9725560000000000 0.7092670000000000 0.1190370000000000
0.5115440000000000 0.7912610000000000 0.3098370000000000
0.5941830000000000 0.5192490000000000 0.3257450000000000
0.7375510000000000 0.9738350000000000 0.4161560000000000
0.6231600000000000 0.7230730000000000 0.2931290000000000
0.6811790000000000 0.5094270000000000 0.3949930000000000
0.8419000000000000 0.7997770000000000 0.3454590000000000
0.8602300000000001 0.9487240000000000 0.4319110000000000
0.5191770000000000 0.5528510000000000 0.6679140000000000
0.6454390000000000 0.5508990000000000 0.6693650000000000
0.7567320000000000 0.6982150000000000 0.7045840000000000
0.8407710000000000 0.8910370000000000 0.6920670000000000
0.7925390000000000 0.9727450000000000 0.6497030000000000
0.8592640000000000 0.9652290000000000 0.5353310000000000
0.9167850000000000 0.6791040000000000 0.6778310000000000
0.9950490000000000 0.9087030000000000 0.6583360000000000
0.7266720000000000 0.6874830000000000 0.9779540000000000
0.5909300000000000 0.9323140000000000 0.8945240000000000
0.6259570000000000 0.6102680000000000 0.7835330000000000
0.7360040000000000 0.9489290000000000 0.8964910000000000
0.8315439999999999 0.6640660000000000 0.8740800000000000
0.8965860000000000 0.7530350000000000 0.9660630000000000
0.9891240000000000 0.8331180000000000 0.8552400000000000
0.9887170000000000 0.9450170000000000 0.9564750000000000
0.1701780000000000 0.3374420000000000 0.0270229000000000
0.1004340000000000 0.0686162000000000 0.0158298000000000
0.0009874400000000 0.1119470000000000 0.1578290000000000
0.3835910000000000 0.2183180000000000 0.0502493000000000
0.4305130000000000 0.4088120000000000 0.1516790000000000
0.1888550000000000 0.1651500000000000 0.1079570000000000
0.2664670000000000 0.2985930000000000 0.2342530000000000
0.4900580000000000 0.4530990000000000 0.0033857800000000
0.1400310000000000 0.4648600000000000 0.2859610000000000
0.3467100000000000 0.1748040000000000 0.2912860000000000
0.1286270000000000 0.1731650000000000 0.4835520000000000
0.3204200000000000 0.3848540000000000 0.4534440000000000
0.1033960000000000 0.2897580000000000 0.3708620000000000
0.3826440000000000 0.4436840000000000 0.3019840000000000
0.0086620900000000 0.0487838000000000 0.4482040000000000
0.2948170000000000 0.1408240000000000 0.4421370000000000
0.0484295000000000 0.3056660000000000 0.6886409999999999
0.2332370000000000 0.3949650000000000 0.6716290000000000
0.2800260000000000 0.1261330000000000 0.5960720000000000
0.2612540000000000 0.0980865000000000 0.7311540000000000
0.3875830000000000 0.3342910000000000 0.6537570000000000
0.4194130000000000 0.0695710000000000 0.6070340000000000
0.4659430000000000 0.0050245500000000 0.7072410000000000
0.2591330000000000 0.1733490000000000 0.8956210000000000
0.1069190000000000 0.1913540000000000 0.8938780000000000
0.4865470000000000 0.2420390000000000 0.8958810000000000
0.4460660000000000 0.0053531800000000 0.9608100000000001
0.1603920000000000 0.7474140000000000 0.0295166000000000
0.0766144000000000 0.9287879999999999 0.1289470000000000
0.3419520000000000 0.5658250000000000 0.2033800000000000
0.2564070000000000 0.6006030000000000 0.0636402000000000
0.1611680000000000 0.8274510000000000 0.1852700000000000
0.3032880000000000 0.9412880000000000 0.2385630000000000
0.2759720000000000 0.9745590000000000 0.0586789000000000
0.4015670000000000 0.9973420000000000 0.1114810000000000
0.4090670000000000 0.8122370000000000 0.2438680000000000
0.4898140000000000 0.6617720000000000 0.1015340000000000
0.0061288700000000 0.9818980000000000 0.2904310000000000
0.0821332000000000 0.5143570000000000 0.4568870000000000
0.3276090000000000 0.9714070000000000 0.4748720000000000
0.1710680000000000 0.9449440000000000 0.4009150000000000
0.0560503000000000 0.6533470000000000 0.3305660000000000
0.2301070000000000 0.7246000000000000 0.3515740000000000
0.4668230000000000 0.6122250000000000 0.3967730000000000
0.3726030000000000 0.7794700000000000 0.4138080000000000
0.1113020000000000 0.9478200000000000 0.7195600000000000
0.1471030000000000 0.9708110000000000 0.5544170000000000
0.1887160000000000 0.7497549999999999 0.5080820000000000
0.0187406000000000 0.5342090000000000 0.6460600000000000
0.2684870000000000 0.8800380000000000 0.6114070000000000
0.3217240000000000 0.6712480000000000 0.6510280000000001
0.4945830000000000 0.7237080000000000 0.5197780000000000
0.1921220000000000 0.5049740000000000 0.5724510000000000
0.2704660000000000 0.8716150000000000 0.7530710000000000
0.2493790000000000 0.5981790000000000 0.9163370000000000
0.3138890000000000 0.9720780000000000 0.8515960000000000
0.1346830000000000 0.9499190000000000 0.8694770000000001
0.3376690000000000 0.5393050000000000 0.7576650000000000
0.0308647000000000 0.7750250000000000 0.9908979999999999
0.1993730000000000 0.6242740000000000 0.8044530000000000
0.4696120000000000 0.7650380000000000 0.9017820000000000
0.3807090000000000 0.7856030000000001 0.8008480000000000
0.5364679999999999 0.2132890000000000 0.1058590000000000
0.5290790000000000 0.3681430000000000 0.2360610000000000
0.6063210000000000 0.4690960000000000 0.0835023000000000
0.5819690000000000 0.0446803000000000 0.0068532700000000
0.6974790000000000 0.2972920000000000 0.0202525000000000
0.5004710000000000 0.0769439000000000 0.2098780000000000
0.9451400000000000 0.4307250000000000 0.0807924000000000
0.7265020000000000 0.3951640000000000 0.1325100000000000
0.6772990000000000 0.1141370000000000 0.1289120000000000
0.8264480000000000 0.0591951000000000 0.1735660000000000
0.7874760000000000 0.2783070000000000 0.2144390000000000
0.9885450000000000 0.1970960000000000 0.0418213000000000
0.9600780000000000 0.4511580000000000 0.2373870000000000
0.5143720000000001 0.4434180000000000 0.4645800000000000
0.6359430000000000 0.0240281000000000 0.2720380000000000
0.5190740000000000 0.0916026000000000 0.4431630000000000
0.6053780000000000 0.2966920000000000 0.3458160000000000
0.7207540000000000 0.1526030000000000 0.3468200000000000
0.6330670000000000 0.3106460000000000 0.4746050000000000
0.9528900000000000 0.3994820000000000 0.3776540000000000
0.5872750000000000 0.2053650000000000 0.5906970000000000
0.7258680000000000 0.4872040000000000 0.5411200000000000
0.6811100000000000 0.0702057000000000 0.6245290000000000
0.8822860000000000 0.2843080000000000 0.6949980000000000
0.8162750000000000 0.3156970000000000 0.5223640000000001
0.9709600000000000 0.2496000000000000 0.5009360000000000
0.9630400000000000 0.0876259000000000 0.6148000000000000
0.5734320000000001 0.1825100000000000 0.7580780000000000
0.5240420000000000 0.4072680000000000 0.7658770000000000
0.8209170000000000 0.4226800000000000 0.8796570000000000
0.5766970000000000 0.2843690000000000 0.9630900000000000
0.7155310000000000 0.3205910000000000 0.8035700000000000
0.7305750000000000 0.1683010000000000 0.8785460000000000
0.9247130000000000 0.2446250000000000 0.8258030000000000
0.8831500000000000 0.3668320000000000 0.9722040000000000
0.7671840000000000 0.1062300000000000 0.9869329999999999
0.6647930000000000 0.8744410000000000 0.0466684000000000
0.5246769999999999 0.6435740000000000 0.2123870000000000
0.6674240000000000 0.5738500000000000 0.1799930000000000
0.9344020000000000 0.9138080000000000 0.0881913000000000
0.7778560000000000 0.5502380000000000 0.0036015500000000
0.5771450000000000 0.8935250000000000 0.3901920000000000
0.7640870000000000 0.6580790000000000 0.2909300000000000
0.7457180000000000 0.8983530000000000 0.2907630000000000
0.6414990000000000 0.7069490000000000 0.4138020000000000
0.9192840000000000 0.5757830000000000 0.4819660000000000
0.9716430000000000 0.8194950000000000 0.4089020000000000
0.8295420000000000 0.5654390000000000 0.3963910000000000
0.9576180000000000 0.7188350000000000 0.2551300000000000
0.6071780000000000 0.5942080000000000 0.5432570000000000
0.5464620000000000 0.9702740000000000 0.5558450000000000
0.5021550000000000 0.7414940000000000 0.6549840000000000
0.6678430000000000 0.8464590000000000 0.5296470000000000
0.6675950000000000 0.7570610000000000 0.6509810000000000
0.8146520000000000 0.5356350000000000 0.6314230000000000
0.8009420000000000 0.7503790000000000 0.5262620000000000
0.9633690000000000 0.8254430000000000 0.5542620000000000
0.5856170000000001 0.9345880000000000 0.7649220000000000
0.5243350000000000 0.6791430000000001 0.7761840000000000
0.6983880000000000 0.8558440000000000 0.7957840000000000
0.6064430000000000 0.7195560000000000 0.9565560000000000
0.8601860000000000 0.8158870000000000 0.7895850000000000
0.7388230000000000 0.5903400000000000 0.8165360000000000
0.8332130000000000 0.8787750000000000 0.9251050000000000
0.9643360000000000 0.6793330000000000 0.7641600000000000
0.9638510000000000 0.6177340000000000 0.8776659999999999
