Al4 Cu4 Ni2                             
   1.00000000000000     
     2.9764018912663470    0.0000000000000000   -0.0000000000000000
     0.0000000000000000    2.9764018912663470    0.0000000000000000
    -0.0000000000000000    0.0000000000000000   14.2924309769547513
   Al   Cu   Ni
     4     4     2
Direct
 -0.0000000000000000  0.0000000000000000  0.9936714644684577
 -0.0000000000000000  0.0000000000000000  0.1884058942330504
  0.0000000000000000  0.0000000000000000  0.4002305342236451
  0.0000000000000000  0.0000000000000000  0.6141501880862579
  0.5000000000000000  0.5000000000000000  0.2952681914136875
  0.5000000000000000  0.5000000000000000  0.5057843403348409
  0.5000000000000000  0.5000000000000000  0.7091611833662682
  0.5000000000000000  0.5000000000000000  0.8960751739427110
  0.0000000000000000  0.0000000000000000  0.8023963391559832
  0.5000000000000000  0.5000000000000000  0.0948566907750910
 
  0.00000000E+00  0.00000000E+00  0.00000000E+00
  0.00000000E+00  0.00000000E+00  0.00000000E+00
  0.00000000E+00  0.00000000E+00  0.00000000E+00
  0.00000000E+00  0.00000000E+00  0.00000000E+00
  0.00000000E+00  0.00000000E+00  0.00000000E+00
  0.00000000E+00  0.00000000E+00  0.00000000E+00
  0.00000000E+00  0.00000000E+00  0.00000000E+00
  0.00000000E+00  0.00000000E+00  0.00000000E+00
  0.00000000E+00  0.00000000E+00  0.00000000E+00
  0.00000000E+00  0.00000000E+00  0.00000000E+00
