W1
1.0
   2.5885513900000001    0.0000000000000000   -0.9151922000000000
  -1.2942756900000001    2.2417513699999998   -0.9151922000000000
  -0.0000000000000000   -0.0000000100000000    2.7455745899999999
W
1
direct
   0.0000000000000000    0.0000000000000000   -0.0000000000000000 W
