Al3 Cu1                                 
   1.00000000000000     
     3.9303070946226049    0.0000000000000000   -0.0000000000000000
     0.0000000000000000    3.9303070946226044    0.0000000000000000
     0.0000000000000000    0.0000000000000000    3.9303070946226049
   Al   Cu
     3     1
Direct
  0.0000000000000000  0.5000000000000000  0.5000000000000000
  0.5000000000000000  0.0000000000000000  0.5000000000000000
  0.5000000000000000  0.5000000000000000  0.0000000000000000
  0.0000000000000000  0.0000000000000000  0.0000000000000000
 
  0.00000000E+00  0.00000000E+00  0.00000000E+00
  0.00000000E+00  0.00000000E+00  0.00000000E+00
  0.00000000E+00  0.00000000E+00  0.00000000E+00
  0.00000000E+00  0.00000000E+00  0.00000000E+00
