Al4 Cu15
1.0
   3.6087699999999998    0.0000000000000000    0.0000000000000000
   0.0000000000000000    3.6087699999999998    0.0000000000000000
   0.0000000000000000    0.0000000000000000   18.4562239999999989
Al Cu
4 15
direct
   0.0000000000000000    0.0000000000000000    0.1910480000000000 Al
   0.0000000000000000    0.0000000000000000    0.3966530000000000 Al
   0.0000000000000000    0.0000000000000000    0.6033470000000000 Al
   0.0000000000000000    0.0000000000000000    0.8089520000000000 Al
   0.5000000000000000    0.5000000000000000    0.0000000000000000 Cu
   0.5000000000000000    0.5000000000000000    0.1896159999999990 Cu
   0.5000000000000000    0.5000000000000000    0.3965990000000000 Cu
   0.5000000000000000    0.5000000000000000    0.6034010000000000 Cu
   0.5000000000000000    0.5000000000000000    0.8103840000000000 Cu
   0.5000000000000000    0.0000000000000000    0.0900010000000000 Cu
   0.5000000000000000    0.0000000000000000    0.2927000000000000 Cu
   0.5000000000000000    0.0000000000000000    0.5000000000000000 Cu
   0.5000000000000000    0.0000000000000000    0.7073000000000000 Cu
   0.5000000000000000    0.0000000000000000    0.9099990000000000 Cu
   0.0000000000000000    0.5000000000000000    0.0900010000000000 Cu
   0.0000000000000000    0.5000000000000000    0.2927000000000000 Cu
   0.0000000000000000    0.5000000000000000    0.5000000000000000 Cu
   0.0000000000000000    0.5000000000000000    0.7073000000000000 Cu
   0.0000000000000000    0.5000000000000000    0.9099990000000000 Cu
