Al4 Ni15 
1.0
3.5790721844853732e+00 0.0000000000000000e+00 0.0000000000000000e+00 
1.9235090650534604e-16 3.5790721844853746e+00 0.0000000000000000e+00 
-3.5231491195764791e-18 2.1138894717456911e-17 1.7369253238777265e+01 
Al Ni 
4 15 
Cartesian
   3.5790721845    3.5790721845    3.3081653411
   3.5790721845    3.5790721845    6.9069877659
   3.5790721845    3.5790721845   10.4622654729
   3.5790721845    3.5790721845   14.0610878977
   1.7895360922    1.7895360922    3.2988727906
   1.7895360922    3.5790721845    1.5461570786
   1.7895360922    3.5790721845    5.1085579163
   3.5790721845    1.7895360922    1.5461570786
   3.5790721845    1.7895360922    5.1085579163
   1.7895360922    1.7895360922    6.8938739797
   1.7895360922    1.7895360922   10.4753792591
   1.7895360922    3.5790721845    8.6846266194
   3.5790721845    1.7895360922    8.6846266194
   1.7895360922    1.7895360922   17.3692532388
   1.7895360922    1.7895360922   14.0703804481
   1.7895360922    3.5790721845   12.2606953225
   1.7895360922    3.5790721845   15.8230944232
   3.5790721845    1.7895360922   12.2606953225
   3.5790721845    1.7895360922   15.8230944232
