Ta4 Ni12
1.0
   4.4203551599999997    0.0000000000000000   -0.8454680400000000
   0.0000000000000000    5.0775531000000003    0.0000000000000000
  -0.0073333100000000    0.0000000000000000    8.5641819100000003
Ta Ni
4 12
direct
   0.3875028100000000    0.7500000000000000    0.6218036900000000 Ta
   0.6124971900000000    0.2500000000000000    0.3781963100000000 Ta
   0.2104610600000000    0.7500000000000000    0.1275397000000000 Ta
   0.7895389400000000    0.2500000000000000    0.8724603000000000 Ta
   0.2941822100000000    0.9987236400000000    0.8768096800000000 Ni
   0.8858602100000000    0.9973982400000000    0.6266673400000000 Ni
   0.7978761700000000    0.7500000000000000    0.8733773500000001 Ni
   0.1141397900000000    0.4973982400000000    0.3733326600000000 Ni
   0.6341906900000001    0.7500000000000000    0.3762131800000000 Ni
   0.2941822100000000    0.5012763600000000    0.8768096800000000 Ni
   0.3658093100000000    0.2500000000000000    0.6237868200000000 Ni
   0.7058177900000000    0.0012763600000000    0.1231903200000000 Ni
   0.7058177900000000    0.4987236400000000    0.1231903200000000 Ni
   0.1141397900000000    0.0026017600000000    0.3733326600000000 Ni
   0.2021238300000000    0.2500000000000000    0.1266226500000000 Ni
   0.8858602100000000    0.5026017600000000    0.6266673400000000 Ni
