Nb6 Al2                                 
   1.00000000000000     
     5.1923493815862152    0.0000000000000000    0.0000000000000000
    -0.0000000000000000    5.1923493815862152   -0.0000000000000000
    -0.0000000000000000    0.0000000000000000    5.1923493815862152
   Nb   Al
     6     2
Direct
  0.2500000000000000  0.0000000000000000  0.5000000000000000
  0.7500000000000000 -0.0000000000000000  0.5000000000000000
 -0.0000000000000000  0.5000000000000000  0.2500000000000000
 -0.0000000000000000  0.5000000000000000  0.7500000000000000
  0.5000000000000000  0.7500000000000000 -0.0000000000000000
  0.5000000000000000  0.2500000000000000  0.0000000000000000
 -0.0000000000000000 -0.0000000000000000  0.0000000000000000
  0.5000000000000000  0.5000000000000000  0.5000000000000000
 
  0.00000000E+00  0.00000000E+00  0.00000000E+00
  0.00000000E+00  0.00000000E+00  0.00000000E+00
  0.00000000E+00  0.00000000E+00  0.00000000E+00
  0.00000000E+00  0.00000000E+00  0.00000000E+00
  0.00000000E+00  0.00000000E+00  0.00000000E+00
  0.00000000E+00  0.00000000E+00  0.00000000E+00
  0.00000000E+00  0.00000000E+00  0.00000000E+00
  0.00000000E+00  0.00000000E+00  0.00000000E+00
