Al6 Cu12 Zr3 Ta3 
1.0
8.5012118370045879e+00 0.0000000000000000e+00 0.0000000000000000e+00 
-2.4358814630355985e-01 4.7321568902781257e+00 0.0000000000000000e+00 
-5.7745075003600954e-01 -3.8079168819215398e-01 9.1020662460673112e+00 
Al Cu Zr Ta 
6 12 3 3 
Cartesian
   1.2333489859    1.2526110858    3.9856491761
   5.3814850879    3.7345616516    3.2482543812
   2.6253814087    3.6528534567    7.9218013159
   3.7194457841    1.2986971517    6.8871148334
   7.3575006936    3.8318634385    8.2196937400
   6.4948112319    1.4079667231    6.6157731365
   2.8852196538    0.1069956657    2.4976615903
   1.4601881090    3.2924694107    0.4536888512
   2.8105757575    2.4770054227    2.4397178366
   0.3878734576    3.5173328345    2.7975928773
   3.3591729864    1.5485981688    0.1309887456
   1.0240717276    0.8502813796    1.0533548205
   4.2798157933    3.9336013553    1.0445804286
   7.5804030049    2.2434829959    0.8581737527
   6.9398197228    4.5539797093    1.4926842520
   5.2672313969    1.5918745214    1.7769872912
   5.1425112461    2.5847458160    8.4800856512
   5.2841769624    0.2296006295    8.5674745892
   0.8602118760    1.3301864741    7.0523355399
   2.4587615526    3.6666721259    5.1042567095
   7.9323789956    3.7440100561    5.3740237489
   7.0274334119    1.3844281144    3.8437388613
   4.3779816474    1.3675490139    4.3424410709
   5.1073423123    3.7279748333    5.9346746214
