Zr6 Nb3 Ta3 W12 
1.0
9.6686821224168558e+00 0.0000000000000000e+00 0.0000000000000000e+00 
-5.4193574502997452e-06 6.4705602110185172e+00 0.0000000000000000e+00 
7.0884372073705766e-07 1.9591156975987522e-02 6.7885209171267746e+00 
Zr Nb Ta W 
6 3 3 12 
Cartesian
   9.6686797925    3.2260752357    3.4829456958
   3.2228884880    3.2260752357    3.4829456958
   1.6114463293    4.8794163066    1.6162857337
   6.4457889746    3.2260752357    3.4829456958
   4.8343371472    4.8794163066    1.6162857337
   8.0572279651    4.8794163066    1.6162857337
   3.2228911598    0.0374983800    3.4945065469
   9.6686824643    0.0374983800    3.4945065469
   6.4457916464    0.0374983800    3.4945065469
   1.6114490772    1.5948119167    1.5874141542
   4.8343398951    1.5948119167    1.5874141542
   8.0572307130    1.5948119167    1.5874141542
   9.6686828010    0.0422894950    6.6830748217
   3.2228914965    0.0422895597    6.6830748217
   1.6114494536    1.6060094492    5.1984117201
   3.2228888271    3.2295733732    6.6838351361
   1.6114466995    4.8939662930    5.1961375656
  -0.0000019831    3.2295733732    6.6838351361
   4.8343402715    1.6060094492    5.1984117201
   6.4457919831    0.0422895597    6.6830748217
   8.0572310894    1.6060094492    5.1984117201
   6.4457893137    3.2295733732    6.6838351361
   4.8343375174    4.8939662930    5.1961375656
   8.0572283354    4.8939662930    5.1961375656
