Al4 Ni4 Cu4 Zr4 Nb8 Ta4 W4 
1.0
8.6809865968242335e+00 0.0000000000000000e+00 0.0000000000000000e+00 
5.9543148146531052e-06 6.9030899960897312e+00 0.0000000000000000e+00 
-9.2965089816965526e-05 2.4701880418396432e-04 8.7690130263085635e+00 
Al Ni Cu Zr Nb Ta W 
4 4 4 4 8 4 4 
Cartesian
   2.1826800088    5.0596649959    4.2995873910
   8.6684695156    3.5694328307    4.2995873910
   2.1826536816    3.5695062727    6.6616788919
   8.6684457591    5.0597384380    6.6616788919
   0.0267384692    0.1606728096    0.0223190673
   2.1435103238    1.5651037081    0.0223206458
   0.0267175202    1.5651642054    2.1699361184
   2.1434863444    0.1607333069    2.1699361184
   0.1784371954    3.3164005760    0.1517223403
   1.9917901975    3.3164537829    2.0405317932
   1.9918119435    5.3124704669    0.1517205865
   0.1784180247    5.3125236738    2.0405317932
   4.1410152570    3.3599493545    0.0517427013
   4.1409947595    5.2689748953    2.1405073107
   6.7102005441    3.3600081939    2.1405073107
   6.7102243348    5.2689160558    0.0517421752
   4.3134263539    3.3670489818    4.3330850208
   4.2125586407    0.0519434961    4.3774649957
   6.5377224602    5.2620576351    4.3330850208
   6.6385832781    1.6740743135    4.3774649957
   4.2125366493    1.6741364649    6.5838012872
   4.3134036569    5.2621222869    6.6281812621
   6.5376964941    3.3671136335    6.6281812621
   6.6385584884    0.0520042669    6.5838012872
   2.0283381311    1.8256428083    4.2833121028
   0.1418268777    6.8034610045    4.2833121028
   0.1417963290    1.8257102642    6.6779541801
   2.0283170379    6.8035284603    6.6779541801
   4.2759803912    1.6134381641    2.1930249297
   6.5752078445    0.1124592684    2.1930249297
   4.2759093890    0.1126424181    8.7682413532
   6.5751394318    1.6136233848    8.7682413532
