Zr6 Al2
1.0
   3.1006288899999999   -5.3704465299999997    0.0000000000000000
   3.1006288899999999    5.3704465299999997   -0.0000000000000000
  -0.0000000000000000   -0.0000000000000000    5.0628137100000004
Zr Al
6 2
direct
   0.1719483300000000    0.3438956600000000    0.2500000000000000 Zr
   0.6561043400000001    0.8280516700000000    0.2500000000000000 Zr
   0.1719483300000000    0.8280516700000000    0.2500000000000000 Zr
   0.8280516700000000    0.6561043400000001    0.7500000000000000 Zr
   0.3438956600000000    0.1719483300000000    0.7500000000000000 Zr
   0.8280516700000000    0.1719483300000000    0.7500000000000000 Zr
   0.3333330000000000    0.6666670000000000    0.7500000000000000 Al
   0.6666670000000000    0.3333330000000000    0.2500000000000000 Al
