Al1 Ni1                                 
   1.00000000000000     
    -2.0473309089581195   -1.4469598186078543    1.4469598186078543
    -2.0473309089581195    1.4469598186078543   -1.4469598186078543
     0.0000000000000000   -2.0425343932641544   -2.0425343932641544
   Al   Ni
     1     1
Direct
 -0.0000000000000000 -0.0000000000000000  0.0000000000000000
  0.5000000000000000  0.5000000000000000  0.5000000000000000
 
  0.00000000E+00  0.00000000E+00  0.00000000E+00
  0.00000000E+00  0.00000000E+00  0.00000000E+00
