Converted from final.data
1.0
14.7459997769934912 0.0000000000000000 0.0000000000000000
-0.0237688596614754 15.6946604429425047 0.0000000000000000
-0.1629325848066394 0.2576096824081016 30.2746031886369877
Zr W Ta Ni Cu
10 9 16 2 21
Direct
0.1705435912809583 0.5951918501970342 0.1076646153148011
0.9726637945950172 0.2939130495126666 0.2018307939689387
0.2340916372498867 0.2136607961511626 0.1195754644033527
0.1798359848327503 0.2135021769803593 0.3410843509267462
0.1167015854811778 0.3707365749158513 0.2441518980133463
0.0229481520901525 0.6467522462244183 0.9078524434495767
0.1303071996481269 0.0547289562108788 0.2686226876148566
-0.0227370096724410 0.0517589178853213 0.0718150920518700
0.8041418885258661 0.2610377666139259 0.0535813684437884
0.5092481536564394 0.4184385342133611 0.0478430638202690
0.2392455551148116 0.4356677522767798 -0.0335772952829843
0.3518785897279315 0.4584557801671892 0.2744320636605206
0.0988018342653922 0.1746634543885037 0.0686392393903751
0.4572913250849157 0.0562429743253903 0.0388141287485779
0.2567349183303630 0.5172621997894694 0.1965606339703614
0.5014977408224328 0.3195427058297144 0.2220444123523951
0.3757119341447384 0.1980997309422428 0.4652818947985547
0.3193825809620896 0.3516535127138197 0.1944171087997781
0.1033448911155315 0.3438453643599004 0.9766639272295479
0.3401285787533636 0.4887458807252372 0.1262992890945954
0.1737657165857596 0.1473584429710199 0.9580401037505009
0.1490246632121396 0.4120457724789210 0.1426027685952715
0.4659197007148327 0.2351767852997133 0.0572063206284962
0.1009414459529318 0.3724394506287138 0.0406125842316387
0.4664546108216577 0.0856325977912281 0.4330380222925032
0.0835410854051105 0.4571128970702966 0.4271952691251816
0.2811839931400220 0.4530742214124522 0.4243525255016489
0.2487033449081806 0.7194612542533306 0.1496469048385205
0.2331823432742991 0.4379999620596304 0.9122374919590329
0.1700949787473742 0.0658575532127165 -0.0032828412899864
0.1390248045238945 0.6751821715746397 0.2199357851261403
0.0376787256177676 0.3344670319848812 0.3360320078256665
0.1590012171280602 0.5617046455408345 0.4850823825276934
0.2957002711476401 0.2884877125394891 0.9554492382843431
0.4695012312797675 0.4768580735846473 0.1907244774274021
0.0966892622914518 0.5244755938128203 0.1922308741077693
-0.0181662074032985 0.4244121994344031 0.1610683162215328
0.8494251854675391 0.1058311625357873 0.0511425168813219
0.3947300960701521 0.6317641805386284 0.1771154012118213
0.0845158220872756 0.0644822567136528 0.4600755350169809
0.8127202443372252 0.3507632855167744 0.2596727934699554
0.4807963567489480 0.5753836031357029 0.2687126044987475
0.9565535746208064 0.3307927469312295 0.4315657039745127
0.9415335479451635 0.2245737900060861 0.2788253416958295
0.2885432853729544 0.2983779987771528 0.4190237847253341
0.6245999919013479 0.3134880103278679 0.0865635304204710
0.4266145949580380 0.0954929196856370 0.1226608307378731
0.3105119783599484 0.3509647110658379 0.0688760293450235
0.2992703546002662 0.4848876964948773 0.0359575853333957
0.0215634639000694 0.1309990702144448 0.3312355955161564
0.9727977299947133 0.1160246820749222 0.2287518074437155
0.3875759187983441 0.2003896954217003 0.3694470208306843
0.0424743299615234 0.1939699365256833 0.4003994854410342
0.9455310740030410 0.1454274525291857 0.4446693970449121
0.9538533123431637 0.4933428165900037 0.4276476192535157
0.1312699168331987 0.0246565150610059 0.3847993064993592
0.8962820218882661 0.3677815856089868 0.1139258843918747
0.5897737078045224 0.4060160090622106 0.1454824456245155
