bcc_Al3_Cu0_Nb0_Ni18_Ta0_W3_Zr0         
   1.00000000000000     
    10.7923646985065602    0.0000000000000000    0.0000000000000000
     0.0000000000000000    5.0948676522570597   -0.0000000000000000
    -0.0000000000000000    0.0000000000000000    5.0948676522570597
   Al   Ni   W 
     3    18     3
Direct
  0.1666666666666643  0.2500000000000000  0.7500000000000000
  0.5000000000000000  0.2500000000000000  0.7500000000000000
  0.8333333333333357  0.2500000000000000  0.7500000000000000
 -0.0000000000000000  0.5015877196220487  0.4984122803779513
  0.3333333333333357  0.5015877196220488  0.4984122803779513
  0.6666666666666643  0.5015877196220487  0.4984122803779514
  0.0000000000000000 -0.0015877196220486  0.0015877196220486
  0.3333333333333357 -0.0015877196220486  0.0015877196220487
  0.6666666666666643 -0.0015877196220487  0.0015877196220487
  0.1666666666666643  0.7500000000000000  0.7500000000000000
  0.5000000000000000  0.7500000000000000  0.7500000000000000
  0.8333333333333357  0.7500000000000000  0.7500000000000000
  0.0000000000000000 -0.0015877196220487  0.4984122803779514
  0.3333333333333357 -0.0015877196220487  0.4984122803779513
  0.6666666666666643 -0.0015877196220487  0.4984122803779513
 -0.0000000000000000  0.5015877196220487  0.0015877196220487
  0.3333333333333357  0.5015877196220487  0.0015877196220486
  0.6666666666666643  0.5015877196220487  0.0015877196220486
  0.1666666666666643  0.2500000000000000  0.2500000000000000
  0.5000000000000000  0.2500000000000000  0.2500000000000000
  0.8333333333333357  0.2500000000000000  0.2500000000000000
  0.1666666666666643  0.7500000000000000  0.2500000000000000
  0.5000000000000000  0.7500000000000000  0.2500000000000000
  0.8333333333333357  0.7500000000000000  0.2500000000000000
 
  0.00000000E+00  0.00000000E+00  0.00000000E+00
  0.00000000E+00  0.00000000E+00  0.00000000E+00
  0.00000000E+00  0.00000000E+00  0.00000000E+00
  0.00000000E+00  0.00000000E+00  0.00000000E+00
  0.00000000E+00  0.00000000E+00  0.00000000E+00
  0.00000000E+00  0.00000000E+00  0.00000000E+00
  0.00000000E+00  0.00000000E+00  0.00000000E+00
  0.00000000E+00  0.00000000E+00  0.00000000E+00
  0.00000000E+00  0.00000000E+00  0.00000000E+00
  0.00000000E+00  0.00000000E+00  0.00000000E+00
  0.00000000E+00  0.00000000E+00  0.00000000E+00
  0.00000000E+00  0.00000000E+00  0.00000000E+00
  0.00000000E+00  0.00000000E+00  0.00000000E+00
  0.00000000E+00  0.00000000E+00  0.00000000E+00
  0.00000000E+00  0.00000000E+00  0.00000000E+00
  0.00000000E+00  0.00000000E+00  0.00000000E+00
  0.00000000E+00  0.00000000E+00  0.00000000E+00
  0.00000000E+00  0.00000000E+00  0.00000000E+00
  0.00000000E+00  0.00000000E+00  0.00000000E+00
  0.00000000E+00  0.00000000E+00  0.00000000E+00
  0.00000000E+00  0.00000000E+00  0.00000000E+00
  0.00000000E+00  0.00000000E+00  0.00000000E+00
  0.00000000E+00  0.00000000E+00  0.00000000E+00
  0.00000000E+00  0.00000000E+00  0.00000000E+00
