Nb1 W1
1.0
  -1.6174292500000000   -1.6076969700000001    1.6076969700000001
  -1.6174292500000000    1.6076969700000001   -1.6076969700000001
  -0.0000000000000000   -3.2516267600000002   -3.2516267600000002
Nb W
1 1
direct
  -0.0000000000000000    0.0000000000000000   -0.0000000000000000 Nb
   0.5000000000000000    0.5000000000000000    0.5000000000000000 W
