Ni2 
1.0
2.4848022026617995e+00 0.0000000000000000e+00 0.0000000000000000e+00 
-1.2424011014209466e+00 2.1519018311371556e+00 0.0000000000000000e+00 
-2.9963087058850398e-16 5.6465227450550126e-16 4.0986604537205338e+00 
Ni 
2 
Cartesian
  -0.0000012425    1.4346019381    1.0246651134
   1.2424023437    0.7172998931    3.0739953403
