Nb6 Al2
1.0
   5.2073244100000000    0.0000000000000000   -0.0000000000000000
   0.0000000000000000    5.2073244100000000    0.0000000000000000
  -0.0000000000000000   -0.0000000000000000    5.2073244100000000
Nb Al
6 2
direct
   0.2500000000000000    0.0000000000000000    0.5000000000000000 Nb
   0.7500000000000000   -0.0000000000000000    0.5000000000000000 Nb
  -0.0000000000000000    0.5000000000000000    0.2500000000000000 Nb
  -0.0000000000000000    0.5000000000000000    0.7500000000000000 Nb
   0.5000000000000000    0.7500000000000000   -0.0000000000000000 Nb
   0.5000000000000000    0.2500000000000000   -0.0000000000000000 Nb
  -0.0000000000000000    0.0000000000000000   -0.0000000000000000 Al
   0.5000000000000000    0.5000000000000000    0.5000000000000000 Al
