Al6 Ni3 Cu3 Nb9 Ta3 
1.0
8.2904109983599277e+00 0.0000000000000000e+00 0.0000000000000000e+00 
-2.8725793490125593e-04 5.1927971089881568e+00 0.0000000000000000e+00 
-4.4872807705579416e-04 -3.1221116119554032e-01 8.9775410542671814e+00 
Al Ni Cu Nb Ta 
6 3 3 9 3 
Cartesian
   5.5265624837    4.1600049495    2.7458527518
   4.1681458464    2.6853258207    8.9421515874
   6.8845072996    2.6853307012    8.9421605650
   4.1580684823    4.3718832602    6.7525831895
   5.5266356063    0.9498649532    4.9179598323
   6.8946336679    4.3718832602    6.7525831895
   4.1127584945    2.9954582438    4.6017079936
   5.5264493866    2.4095111942    6.9499364745
   6.9403109408    2.9954582438    4.6017079936
   1.3815702053    1.1062180269    2.0523197503
   2.7257861278   -0.0522943660    8.8694604375
   0.0367647910   -0.0522917696    8.8694604375
   2.8611153399    0.1364006961    4.4226329822
   1.3813765501    2.6088851167    4.1816937354
   4.1419018453    1.5022148922    2.3106574716
   5.5269062936    0.4682107470    0.0567222590
   6.9115789325    1.5022148922    2.3106574716
   8.1922890042    0.1363994505    4.4226240046
   1.3811654398    4.1173758510    6.6411359949
   2.9699204898    1.6693513992    6.5875221197
   8.0830977970    1.6693465186    6.5875131422
   2.7782013093    3.9788576125    2.1159346062
   8.2750173855    3.9788527319    2.1159256286
   1.3811438605    2.3553655388    8.9346732957
