Nb8 Ta12 W12 
1.0
9.1939743293965748e+00 0.0000000000000000e+00 0.0000000000000000e+00 
0.0000000000000000e+00 9.1493350269655132e+00 0.0000000000000000e+00 
0.0000000000000000e+00 0.0000000000000000e+00 6.5109583741490402e+00 
Nb Ta W 
8 12 12 
Cartesian
   2.3313068767    2.3092921608    3.2647638137
   9.1611610350    2.3092921608    4.8739341540
   2.3313068767    9.1273766229    4.8739341540
   4.6139868232    4.5848964700    3.2336935204
   6.8784810885    6.8517723137    3.2336935204
   9.1611610350    9.1273766229    3.2647638137
   4.6139868232    6.8517723137    4.9050044473
   6.8784810885    4.5848964700    4.9050044473
   2.3147669169    2.3158430847    6.5063095499
   9.1777009948    2.3158430847    1.6323884178
   6.8621801720    2.2938389339    3.2085677320
   4.6302877397    2.2938389339    4.9301302357
   2.3147669169    9.1208256990    1.6323884178
   2.3009024036    4.6010450464    1.6539787558
   2.3009024036    6.8356237373    6.4847192119
   9.1915655081    4.6010450464    6.4847192119
   9.1777009948    9.1208256990    6.5063095499
   9.1915655081    6.8356237373    1.6539787558
   4.6302877397    9.1428298498    3.2085677320
   6.8621801720    9.1428298498    4.9301302357
   4.6136098703    2.3024667569    1.5840575738
   6.8788580415    2.3024667569    0.0436848846
   2.3156587324    6.8384508819    3.2763533196
   2.3156587324    4.5982179018    4.8623446481
   4.6000211762    4.5893521962    0.0291397942
   4.6136098703    9.1342020268    0.0436850148
   6.8924467355    4.5893521962    1.5985965439
   6.8788580415    9.1342020268    1.5840575738
   4.6000211762    6.8473165875    1.5985965439
   6.8924467355    6.8473165875    0.0291397942
   9.1768091793    4.5982179018    3.2763533196
   9.1768091793    6.8384508819    4.8623446481
