bcc_Al9_Cu9_Nb3_Ni0_Ta3_W0_Zr0          
   1.00000000000000     
    11.0784527344802921    0.0000000000000000    0.0000000000000000
     0.0000000000000000    5.6015930563907146   -0.2741982772162194
     0.0000000000000000   -0.2708567484595580    5.8397331534269226
   Al   Cu   Nb   Ta
     9     9     3     3
Direct
 -0.0000000000000000  0.0082939248355139 -0.0112619669880205
  0.3333333333333357  0.0082939248355139 -0.0112619669880205
  0.6666666666666643  0.0082939248355139 -0.0112619669880205
  0.1666666666666643  0.7469394711058142  0.7521878891787602
  0.5000000000000000  0.7469394711058142  0.7521878891787603
  0.8333333333333357  0.7469394711058142  0.7521878891787603
 -0.0000000000000000 -0.0003704584953787  0.4556672840127303
  0.3333333333333357 -0.0003704584953787  0.4556672840127303
  0.6666666666666643 -0.0003704584953787  0.4556672840127303
  0.1666666666666643  0.2451433482139393  0.2441421534792454
  0.5000000000000000  0.2451433482139392  0.2441421534792454
  0.8333333333333357  0.2451433482139393  0.2441421534792454
 -0.0000000000000000  0.4997730420982509  0.5021838639237222
  0.3333333333333357  0.4997730420982509  0.5021838639237222
  0.6666666666666643  0.4997730420982509  0.5021838639237222
  0.1666666666666643  0.7387859748814477  0.3036492119601977
  0.5000000000000000  0.7387859748814477  0.3036492119601977
  0.8333333333333357  0.7387859748814477  0.3036492119601977
 -0.0000000000000000  0.5063746823930210  0.0222283123664767
  0.3333333333333357  0.5063746823930210  0.0222283123664767
  0.6666666666666643  0.5063746823930210  0.0222283123664767
  0.1666666666666643  0.2550600149673920  0.7312032520668879
  0.5000000000000000  0.2550600149673920  0.7312032520668879
  0.8333333333333357  0.2550600149673920  0.7312032520668879
 
  0.00000000E+00  0.00000000E+00  0.00000000E+00
  0.00000000E+00  0.00000000E+00  0.00000000E+00
  0.00000000E+00  0.00000000E+00  0.00000000E+00
  0.00000000E+00  0.00000000E+00  0.00000000E+00
  0.00000000E+00  0.00000000E+00  0.00000000E+00
  0.00000000E+00  0.00000000E+00  0.00000000E+00
  0.00000000E+00  0.00000000E+00  0.00000000E+00
  0.00000000E+00  0.00000000E+00  0.00000000E+00
  0.00000000E+00  0.00000000E+00  0.00000000E+00
  0.00000000E+00  0.00000000E+00  0.00000000E+00
  0.00000000E+00  0.00000000E+00  0.00000000E+00
  0.00000000E+00  0.00000000E+00  0.00000000E+00
  0.00000000E+00  0.00000000E+00  0.00000000E+00
  0.00000000E+00  0.00000000E+00  0.00000000E+00
  0.00000000E+00  0.00000000E+00  0.00000000E+00
  0.00000000E+00  0.00000000E+00  0.00000000E+00
  0.00000000E+00  0.00000000E+00  0.00000000E+00
  0.00000000E+00  0.00000000E+00  0.00000000E+00
  0.00000000E+00  0.00000000E+00  0.00000000E+00
  0.00000000E+00  0.00000000E+00  0.00000000E+00
  0.00000000E+00  0.00000000E+00  0.00000000E+00
  0.00000000E+00  0.00000000E+00  0.00000000E+00
  0.00000000E+00  0.00000000E+00  0.00000000E+00
  0.00000000E+00  0.00000000E+00  0.00000000E+00
