Ni1 
1.0
2.4859939998544562e+00 0.0000000000000000e+00 0.0000000000000000e+00 
1.2429969991764087e+00 2.1529339588337599e+00 0.0000000000000000e+00 
1.2429970016521508e+00 7.1764465279162826e-01 2.0298056016836892e+00 
Ni 
1 
Cartesian
   0.0000000000   -0.0000000000    0.0000000000
