Zr2 Al1 Cu2                             
   1.00000000000000     
     2.1142572041225924    7.2640164164680767   -0.3439380743346050
    -2.1142572041225924    7.2640164164680767   -0.3439380743346050
     0.0000000000000000    1.4188025412864247    2.7126262707676103
   Zr   Al   Cu
     2     1     2
Direct
  0.6207776709849626  0.6207776709849626  0.2586645071407894
  0.3792223290150303  0.3792223290150303  0.7413354928592107
  0.0000000000000000  0.0000000000000000  0.0000000000000000
  0.1974748540919397  0.1974748540919397  0.6051145577939749
  0.8025251459080603  0.8025251459080603  0.3948854422060251
 
  0.00000000E+00  0.00000000E+00  0.00000000E+00
  0.00000000E+00  0.00000000E+00  0.00000000E+00
  0.00000000E+00  0.00000000E+00  0.00000000E+00
  0.00000000E+00  0.00000000E+00  0.00000000E+00
  0.00000000E+00  0.00000000E+00  0.00000000E+00
