Ni3 Cu6 Nb3 Ta12 
1.0
1.0071092980306815e+01 0.0000000000000000e+00 0.0000000000000000e+00 
-1.0512055838290226e-05 6.2791151839988286e+00 0.0000000000000000e+00 
1.1616173348477176e-06 -1.7382418646008365e-02 6.0469723233853809e+00 
Ni Cu Nb Ta 
3 6 3 12 
Cartesian
   3.3570274943    0.0852548721    0.0032119521
  10.0710928382    0.0852548718    0.0032120549
   6.7140652018    0.0852548716    0.0032121215
   1.6785171224    1.5544823764    4.6506961791
  10.0710890651    3.0056701564    5.9625868246
   3.3570237212    3.0056701564    5.9625868246
   5.0355447588    1.5544823764    4.6506961791
   8.3925723952    1.5544823764    4.6506961791
   6.7140614287    3.0056701564    5.9625868246
   1.6785118156    4.7177127487    4.5915386488
   5.0355394520    4.7177127487    4.5915386488
   8.3925670884    4.7177127487    4.5915386488
   1.6785112106    4.7250275422    1.4265170529
   1.6785165554    1.5274901707    1.3822834504
  -0.0000046011    3.1087843588    3.0644241643
   3.3570230058    3.1087843588    3.0644241643
   0.0000005246    0.0433929585    3.1066320311
   3.3570281456    0.0433928958    3.1066320311
   5.0355388470    4.7250275422    1.4265170529
   5.0355441918    1.5274901707    1.3822834504
   8.3925664834    4.7250275422    1.4265170529
   8.3925718282    1.5274901707    1.3822834504
   6.7140607133    3.1087780797    3.0644241643
   6.7140658531    0.0433935237    3.1066320311
