Ni6 Nb12 Ta3 W3 
1.0
9.9587515021980124e+00 0.0000000000000000e+00 0.0000000000000000e+00 
-1.3998723698761128e-04 6.2735627052088212e+00 0.0000000000000000e+00 
-3.0352313900907334e-04 -8.7362492035080064e-02 6.1970597343895317e+00 
Ni Nb Ta W 
6 12 3 3 
Cartesian
   9.9584488111   -0.0652656314    6.1701768893
   3.3192778234   -0.0652655687    6.1701768893
   1.6595355669    1.4188968616    4.6255659475
   4.9791160814    1.4188968616    4.6255659475
   6.6388682966   -0.0652655687    6.1701768893
   8.2986965959    1.4188968616    4.6255659475
   1.6596141981    4.7220945318    1.5351108492
   1.6596864940    1.4920888143    1.5306055867
   3.3193563388    3.0665797536    3.1596390732
   3.3192111259    2.9597885891    6.1538848192
   4.9791947126    4.7220945318    1.5351108492
  -0.0003692850    2.9597885891    6.1538848192
   4.9792670085    1.4920888143    1.5306055867
   9.9585273265    3.0665797536    3.1596390732
   8.2987752271    4.7220945318    1.5351108492
   8.2988475230    1.4920888143    1.5306055867
   6.6389468120    3.0665797536    3.1596390732
   6.6388015992    2.9597885891    6.1538848192
   1.6594576714    4.7848823874    4.6821141176
   4.9790381859    4.7848823874    4.6821141176
   8.2986187004    4.7848823874    4.6821141176
  -0.0001539225    0.0048135868    3.1282075863
   3.3194262079    0.0048135868    3.1282075863
   6.6390166811    0.0048135868    3.1282075863
