Nb1 Ta1 
1.0
2.8632828117935580e+00 0.0000000000000000e+00 0.0000000000000000e+00 
-9.5637361524729214e-01 2.6988402516818670e+00 0.0000000000000000e+00 
-1.7835278314436547e-16 3.4720644298492351e-17 4.6873851401104698e+00 
Nb Ta 
1 1 
Cartesian
   0.0000259699    0.0000007315    4.6873851401
   0.9533830162    1.3494201258    2.3436925701
