Al4 Cu4 Ta4 
1.0
5.0643612077228841e+00 0.0000000000000000e+00 0.0000000000000000e+00 
-2.5321806039851622e+00 4.3798950287980869e+00 0.0000000000000000e+00 
-9.2320374679662027e-16 -4.7191607027358623e-16 7.8895955634909312e+00 
Al Cu Ta 
4 4 4 
Cartesian
  -0.0000025322    1.4876882852    5.9171966726
  -1.2396366113    3.6325404003    5.9171966726
   1.2396366111    3.6325404003    5.9171966726
   2.5321806038    2.8987634465    1.9723988909
   3.7620151439    0.7738310939    1.9723988909
   1.3023460638    0.7738310939    1.9723988909
   2.5321831359    4.3719980781    3.9534368889
   2.5321831359    4.3719980781    7.8809564563
   2.5321806038    1.4459697850    4.4657635560
  -0.0000000001    2.9120695676    3.3890231119
  -0.0000000001    2.9120695676    0.5557786147
   2.5321806038    1.4459697850    7.3686297892
