Al4 Ni16 Zr4 Nb4 W4 
1.0
8.4907351582971060e+00 0.0000000000000000e+00 0.0000000000000000e+00 
0.0000000000000000e+00 8.4922866448602541e+00 0.0000000000000000e+00 
0.0000000000000000e+00 0.0000000000000000e+00 6.3339418952788389e+00 
Al Ni Zr Nb W 
4 16 4 4 4 
Cartesian
   2.1533693064    4.2154437062    4.8015840004
   8.4600496414    4.2154437062    3.1158433687
   2.1533693064    6.3999145999    3.1158433687
   8.4600496414    6.3999145999    4.8015840004
   2.0231893550    2.1849124926    3.1571280019
   0.0994978309    2.1849124926    4.7602993672
   0.1168868565    0.0653606294    6.3306862491
   2.0058003294    2.0577150232    6.3306862491
   0.1168868565    2.0577150232    1.5867411200
   2.0058003294    0.0653607143    1.5867411200
   4.1835380457    4.3456559373    3.1571280019
   4.1835380457    6.2697023687    4.7602993672
   0.0994978309    8.4304458135    3.1571280019
   2.0231893550    8.4304458135    4.7602993672
   6.4298809021    6.2697023687    3.1571280019
   6.4298809021    4.3456559373    4.7602993672
   4.3107122769    4.3630481404    6.3306862491
   6.3027066709    6.2523101657    6.3306862491
   4.3107122769    6.2523101657    1.5867411200
   6.3027066709    4.3630481404    1.5867411200
   4.0953193074    2.2731473508    4.7741010266
   6.5180996404    2.2731473508    3.1433263425
   4.0953193074    8.3422109553    3.1433263425
   6.5180996404    8.3422109553    4.7741010266
   4.1316341817    2.2368258408    1.5505869796
   6.4817847662    2.2368258408    0.0329001410
   4.1316341817    8.3785324653    0.0329001410
   6.4817847662    8.3785324653    1.5505869796
   2.1550080183    4.2138131872    1.4828518050
   8.4584109295    4.2138131872    0.1006305019
   2.1550080183    6.4015451189    0.1006305019
   8.4584109295    6.4015451189    1.4828518050
