fcc_Al4_Cu8_Nb0_Ni4_Ta0_W12_Zr4         
   1.00000000000000     
     7.8577001938988467    0.0000000000000000    0.0000000000000000
     0.0000000000000000    7.9201681802294042    0.0000000000000000
     0.0000000000000000    0.0000000000000000    7.8595015963771848
   Al   Cu   Ni   W    Zr
     4     8     4    12     4
Direct
  0.4827288450463753 -0.0099784151847670  0.0129485275979879
  0.7672711549536249  0.2599784151847671  0.0129485275979879
  0.4827288450463753  0.2599784151847671  0.2370514724020121
  0.7672711549536249 -0.0099784151847670  0.2370514724020121
  0.0093921634489816  0.5127189012076194  0.5025180296439109
  0.2406078365510185  0.7372810987923806  0.5025180296439109
  0.0093921634489816  0.7372810987923806  0.7474819703560892
  0.2406078365510185  0.5127189012076194  0.7474819703560892
  0.5030358499313603  0.5034187175295206  0.0195650944154520
  0.7469641500686397  0.7465812824704794  0.0195650944154520
  0.5030358499313603  0.7465812824704794  0.2304349055845480
  0.7469641500686397  0.5034187175295206  0.2304349055845480
  0.0035751462991668  0.0064821677134814  0.0218633312834990
  0.2464248537008332  0.2435178322865185  0.0218633312834990
  0.0035751462991668  0.2435178322865185  0.2281366687165011
  0.2464248537008332  0.0064821677134814  0.2281366687165011
  0.0068363223430779  0.5046445914897221  0.0066793475858988
  0.2431636776569221  0.7453554085102779  0.0066793475858988
  0.0068363223430779  0.7453554085102779  0.2433206524141011
  0.2431636776569221  0.5046445914897221  0.2433206524141011
  0.4917978215885009  0.5195612946060372  0.4873532513500507
  0.7582021784114993  0.7304387053939628  0.4873532513500507
  0.4917978215885009  0.7304387053939628  0.7626467486499494
  0.7582021784114993  0.5195612946060372  0.7626467486499494
  0.0272470868518235 -0.0097003863379355  0.4872343661460474
  0.2227529131481766  0.2597003863379355  0.4872343661460474
  0.0272470868518235  0.2597003863379355  0.7627656338539525
  0.2227529131481766 -0.0097003863379355  0.7627656338539525
  0.4778302760052250 -0.0165781650149534  0.4799618187778474
  0.7721697239947751  0.2665781650149534  0.4799618187778474
  0.4778302760052250  0.2665781650149534  0.7700381812221528
  0.7721697239947751 -0.0165781650149534  0.7700381812221528
 
  0.00000000E+00  0.00000000E+00  0.00000000E+00
  0.00000000E+00  0.00000000E+00  0.00000000E+00
  0.00000000E+00  0.00000000E+00  0.00000000E+00
  0.00000000E+00  0.00000000E+00  0.00000000E+00
  0.00000000E+00  0.00000000E+00  0.00000000E+00
  0.00000000E+00  0.00000000E+00  0.00000000E+00
  0.00000000E+00  0.00000000E+00  0.00000000E+00
  0.00000000E+00  0.00000000E+00  0.00000000E+00
  0.00000000E+00  0.00000000E+00  0.00000000E+00
  0.00000000E+00  0.00000000E+00  0.00000000E+00
  0.00000000E+00  0.00000000E+00  0.00000000E+00
  0.00000000E+00  0.00000000E+00  0.00000000E+00
  0.00000000E+00  0.00000000E+00  0.00000000E+00
  0.00000000E+00  0.00000000E+00  0.00000000E+00
  0.00000000E+00  0.00000000E+00  0.00000000E+00
  0.00000000E+00  0.00000000E+00  0.00000000E+00
  0.00000000E+00  0.00000000E+00  0.00000000E+00
  0.00000000E+00  0.00000000E+00  0.00000000E+00
  0.00000000E+00  0.00000000E+00  0.00000000E+00
  0.00000000E+00  0.00000000E+00  0.00000000E+00
  0.00000000E+00  0.00000000E+00  0.00000000E+00
  0.00000000E+00  0.00000000E+00  0.00000000E+00
  0.00000000E+00  0.00000000E+00  0.00000000E+00
  0.00000000E+00  0.00000000E+00  0.00000000E+00
  0.00000000E+00  0.00000000E+00  0.00000000E+00
  0.00000000E+00  0.00000000E+00  0.00000000E+00
  0.00000000E+00  0.00000000E+00  0.00000000E+00
  0.00000000E+00  0.00000000E+00  0.00000000E+00
  0.00000000E+00  0.00000000E+00  0.00000000E+00
  0.00000000E+00  0.00000000E+00  0.00000000E+00
  0.00000000E+00  0.00000000E+00  0.00000000E+00
  0.00000000E+00  0.00000000E+00  0.00000000E+00
