Ta1 Al1 Ni2                             
   1.00000000000000     
     3.6656797248565085   -0.0000000018006188    2.1163799844773505
     1.2218932365592408    3.4560350173444765    2.1163799844773523
    -0.0000000050070555   -0.0000000035405219    4.2327609962996497
   Ta   Al   Ni
     1     1     2
Direct
  0.5000000000000000  0.5000000000000000  0.5000000000000000
 -0.0000000000000000  0.0000000000000000 -0.0000000000000000
  0.2500000000000000  0.2500000000000000  0.2500000000000000
  0.7500000000000000  0.7500000000000000  0.7500000000000000
 
  0.00000000E+00  0.00000000E+00  0.00000000E+00
  0.00000000E+00  0.00000000E+00  0.00000000E+00
  0.00000000E+00  0.00000000E+00  0.00000000E+00
  0.00000000E+00  0.00000000E+00  0.00000000E+00
