Al1 Ni2 Zr1 
1.0
2.9831601597232442e+00 0.0000000000000000e+00 0.0000000000000000e+00 
6.5653475010526356e-09 2.9831600157924028e+00 0.0000000000000000e+00 
-5.4546788643106490e-09 -2.0225710151782777e-08 6.3229983970117551e+00 
Al Ni Zr 
1 2 1 
Cartesian
   0.0000000256    2.9831570326    0.0000000179
   1.4915800820    1.4915800035    1.3738421227
   1.4915800789    1.4915799921    4.9491562743
   0.0000005827    2.9831600057    3.1614991985
