Al4 Ni8 Zr4 Ta12 W4 
1.0
9.2469424943613809e+00 0.0000000000000000e+00 0.0000000000000000e+00 
1.7954293502154331e-07 6.1032823091614956e+00 0.0000000000000000e+00 
-6.9373309134641917e-09 2.4725077089724307e-08 9.2148517759666593e+00 
Al Ni Zr Ta W 
4 8 4 12 4 
Cartesian
   2.1575059506    2.8038356919    2.0933931671
   2.1575060115    4.8252672008    0.2103197769
   0.1542270621    2.8038356868    0.2103197769
   0.1542271202    4.8252672058    2.0933931671
   2.2967648655    1.4212286285    0.0444071079
   0.0149707475    1.4212286344    2.2593065733
   0.0149712653    0.1045913387    0.0444076608
   2.2967648251    0.1045907343    2.2593065733
   4.7320580901    0.0258441174    4.6958423908
   6.8266200656    1.4999731893    4.6958423908
   4.7320581319    1.4999792983    6.8227223292
   6.8266200207    0.0258441231    6.8227223292
   2.4259077545    4.5978406035    4.4550490990
   9.1327705812    3.0312623069    4.4550490990
   2.4259077064    3.0312623139    7.0635156209
   9.1327706253    4.5978406105    7.0635156209
   4.5658443437    1.4928018264    2.3714789640
   2.3881893846    1.4905131013    4.5441935751
   4.5704124240    4.5776936629    2.3474742751
   6.9928338156    0.0330198622    2.3714789640
   6.9882659148    3.0514092362    2.3474742751
   9.1704887714    0.0353076834    4.5441935751
   4.5704216210    3.0514092545    9.1710904449
   4.5658442956    0.0330201856    9.1470857560
   2.3881893399    0.0353068965    6.9743711449
   6.9882659546    4.5776936812    9.1710904449
   6.9928246065    1.4928018445    9.1470857560
   9.1704888124    1.4905131078    6.9743711449
   4.7541398759    2.9861285349    4.6915851293
   6.8045384594    4.6429743768    4.6915851293
   6.8045384091    2.9861285406    6.8269795907
   4.7541399230    4.6429743825    6.8269795907
