bcc_Al0_Cu0_Nb0_Ni0_Ta0_W0_Zr24         
   1.00000000000000     
    10.7216802439401242    0.0000000000000000    0.0000000000000000
     0.0000000000000000    7.1474195253423911    0.0000000000000000
    -0.0000000000000000    0.0000000000000000    7.1474195253423911
   Zr
    24
Direct
 -0.0000000000000000  0.5000000000000000  0.0000000000000000
  0.3333333333333357  0.5000000000000000 -0.0000000000000000
  0.6666666666666643  0.5000000000000000  0.0000000000000000
  0.0000000000000000  0.5000000000000000  0.5000000000000000
  0.3333333333333357  0.5000000000000000  0.5000000000000000
  0.6666666666666643  0.5000000000000000  0.5000000000000000
  0.1666666666666643  0.7500000000000000  0.7500000000000000
  0.5000000000000000  0.7500000000000000  0.7500000000000000
  0.8333333333333357  0.7500000000000000  0.7500000000000000
  0.0000000000000000  0.0000000000000000  0.5000000000000000
  0.3333333333333357  0.0000000000000000  0.5000000000000000
  0.6666666666666643  0.0000000000000000  0.5000000000000000
  0.1666666666666643  0.7500000000000000  0.2500000000000000
  0.5000000000000000  0.7500000000000000  0.2500000000000000
  0.8333333333333357  0.7500000000000000  0.2500000000000000
  0.0000000000000000 -0.0000000000000000  0.0000000000000000
  0.3333333333333357 -0.0000000000000000  0.0000000000000000
  0.6666666666666643  0.0000000000000000 -0.0000000000000000
  0.1666666666666643  0.2500000000000000  0.7500000000000000
  0.5000000000000000  0.2500000000000000  0.7500000000000000
  0.8333333333333357  0.2500000000000000  0.7500000000000000
  0.1666666666666643  0.2500000000000000  0.2500000000000000
  0.5000000000000000  0.2500000000000000  0.2500000000000000
  0.8333333333333357  0.2500000000000000  0.2500000000000000
 
  0.00000000E+00  0.00000000E+00  0.00000000E+00
  0.00000000E+00  0.00000000E+00  0.00000000E+00
  0.00000000E+00  0.00000000E+00  0.00000000E+00
  0.00000000E+00  0.00000000E+00  0.00000000E+00
  0.00000000E+00  0.00000000E+00  0.00000000E+00
  0.00000000E+00  0.00000000E+00  0.00000000E+00
  0.00000000E+00  0.00000000E+00  0.00000000E+00
  0.00000000E+00  0.00000000E+00  0.00000000E+00
  0.00000000E+00  0.00000000E+00  0.00000000E+00
  0.00000000E+00  0.00000000E+00  0.00000000E+00
  0.00000000E+00  0.00000000E+00  0.00000000E+00
  0.00000000E+00  0.00000000E+00  0.00000000E+00
  0.00000000E+00  0.00000000E+00  0.00000000E+00
  0.00000000E+00  0.00000000E+00  0.00000000E+00
  0.00000000E+00  0.00000000E+00  0.00000000E+00
  0.00000000E+00  0.00000000E+00  0.00000000E+00
  0.00000000E+00  0.00000000E+00  0.00000000E+00
  0.00000000E+00  0.00000000E+00  0.00000000E+00
  0.00000000E+00  0.00000000E+00  0.00000000E+00
  0.00000000E+00  0.00000000E+00  0.00000000E+00
  0.00000000E+00  0.00000000E+00  0.00000000E+00
  0.00000000E+00  0.00000000E+00  0.00000000E+00
  0.00000000E+00  0.00000000E+00  0.00000000E+00
  0.00000000E+00  0.00000000E+00  0.00000000E+00
