Ta17 Al12                               
   1.00000000000000     
    -4.9869619466511281    4.9869619466511281    4.9869619466511281
     4.9869619466511281   -4.9869619466511281    4.9869619466511281
     4.9869619466511281    4.9869619466511281   -4.9869619466511281
   Ta   Al
    17    12
Direct
 -0.0000000000000000  0.0000000000000000 -0.0000000000000000
  0.6476501643496404  0.0000000000000000  0.0000000000000000
 -0.0000000000000000  0.6476501643496404  0.0000000000000000
 -0.0000000000000000  0.0000000000000000  0.6476501643496404
  0.3523498356503598  0.3523498356503598  0.3523498356503598
  0.4081951108688919  0.6782649421058349 -0.0000000000000000
  0.7299301687630571  0.3217350578941651  0.3217350578941651
  0.4081951108688919  0.0000000000000000  0.6782649421058349
  0.6782649421058349  0.4081951108688919 -0.0000000000000000
 -0.0000000000000000  0.4081951108688919  0.6782649421058349
  0.3217350578941651  0.7299301687630571  0.3217350578941651
  0.3217350578941651  0.3217350578941651  0.7299301687630571
 -0.0000000000000000  0.6782649421058349  0.4081951108688919
  0.6782649421058349 -0.0000000000000000  0.4081951108688919
  0.5918048891311080  0.5918048891311080  0.2700698312369428
  0.2700698312369428  0.5918048891311080  0.5918048891311080
  0.5918048891311080  0.2700698312369428  0.5918048891311080
  0.3683497141067699  0.1865977205327983 -0.0000000000000000
  0.1817509935739670  0.8134022794672016  0.8134022794672016
  0.3683497141067699 -0.0000000000000000  0.1865977205327983
  0.1865977205327983  0.3683497141067699  0.0000000000000000
 -0.0000000000000000  0.3683497141067699  0.1865977205327983
  0.8134022794672016  0.1817509935739670  0.8134022794672016
  0.8134022794672016  0.8134022794672016  0.1817509935739670
  0.0000000000000000  0.1865977205327983  0.3683497141067699
  0.1865977205327983  0.0000000000000000  0.3683497141067699
  0.6316502858932301  0.6316502858932301  0.8182490064260259
  0.8182490064260259  0.6316502858932301  0.6316502858932301
  0.6316502858932301  0.8182490064260259  0.6316502858932301
 
  0.00000000E+00  0.00000000E+00  0.00000000E+00
  0.00000000E+00  0.00000000E+00  0.00000000E+00
  0.00000000E+00  0.00000000E+00  0.00000000E+00
  0.00000000E+00  0.00000000E+00  0.00000000E+00
  0.00000000E+00  0.00000000E+00  0.00000000E+00
  0.00000000E+00  0.00000000E+00  0.00000000E+00
  0.00000000E+00  0.00000000E+00  0.00000000E+00
  0.00000000E+00  0.00000000E+00  0.00000000E+00
  0.00000000E+00  0.00000000E+00  0.00000000E+00
  0.00000000E+00  0.00000000E+00  0.00000000E+00
  0.00000000E+00  0.00000000E+00  0.00000000E+00
  0.00000000E+00  0.00000000E+00  0.00000000E+00
  0.00000000E+00  0.00000000E+00  0.00000000E+00
  0.00000000E+00  0.00000000E+00  0.00000000E+00
  0.00000000E+00  0.00000000E+00  0.00000000E+00
  0.00000000E+00  0.00000000E+00  0.00000000E+00
  0.00000000E+00  0.00000000E+00  0.00000000E+00
  0.00000000E+00  0.00000000E+00  0.00000000E+00
  0.00000000E+00  0.00000000E+00  0.00000000E+00
  0.00000000E+00  0.00000000E+00  0.00000000E+00
  0.00000000E+00  0.00000000E+00  0.00000000E+00
  0.00000000E+00  0.00000000E+00  0.00000000E+00
  0.00000000E+00  0.00000000E+00  0.00000000E+00
  0.00000000E+00  0.00000000E+00  0.00000000E+00
  0.00000000E+00  0.00000000E+00  0.00000000E+00
  0.00000000E+00  0.00000000E+00  0.00000000E+00
  0.00000000E+00  0.00000000E+00  0.00000000E+00
  0.00000000E+00  0.00000000E+00  0.00000000E+00
  0.00000000E+00  0.00000000E+00  0.00000000E+00
