Al10 Ta20 
1.0
1.0093194289871656e+01 0.0000000000000000e+00 0.0000000000000000e+00 
-1.8078641198078359e-02 9.6736456595294769e+00 0.0000000000000000e+00 
-6.0297784514180075e-01 -2.0504159298442997e-02 5.4290842951925447e+00 
Al Ta 
10 20 
Cartesian
   3.7778568452    0.3311680108    0.2803589988
   0.0033639373    3.4383356755    0.1990524895
  -0.1700123760    0.0079020643    3.5085457258
   0.9723572468    5.2105854576    2.4251068057
   4.2915795279    4.8471914331    4.6390765231
   4.7351246235    8.2502181613    2.5508498270
   5.3981160590    1.2353110679    2.2729567183
   8.2380662994    4.6374615393    2.6374654379
   9.4164825949    6.0762606002    0.4221199905
   6.5710914992    9.4204857395    0.0974949529
   3.3427544139    3.5060653997    1.3427917060
   2.7099306411    0.3672797691    3.0282020637
   2.0485793479    2.5172503296    4.3560475006
  -0.0430375441    2.6137792252    3.0227349758
   0.9691009714    1.0808418832    1.3612125890
   4.1698009500    7.4265698317    5.1135893486
   3.7638375180    5.9461116727    1.3697525386
   2.0811073904    7.3667467728    3.8024872077
   1.4205660910    5.2209849409    5.1093546629
   1.3528708872    8.3106702184    1.3645460468
   7.6634955633    2.0252407042    3.8049085793
   4.8943938188    2.2886807165    4.9376707302
   8.5435631516    1.4149990137    1.2765840230
   5.7322293432    3.9191242623    1.5415559111
   6.7951930557    4.3247766778    5.1101581674
   9.3293849484    7.1512713967    3.2197075831
   9.0652201948    8.7241258603    1.1764988540
   6.5659155076    6.8363794380    4.2994058641
   6.3078545313    6.2897838384    1.4065237265
   7.3991985383    9.1849351032    3.0449507887
