POSCAR file written by OVITO Basic 3.9.4
1
7.7690214075 0.0 0.0
0.0863685901 8.1039065189 0.0
0.2578875708 -0.0082191469 15.8313
Al W Ni Zr Ta 
12 24 7 11 7 
Cartesian
7.9036065646 8.0185170942 7.989812454
7.7650713074 7.8544908266 4.1078854962
7.7967513074 4.1030608266 4.1480854962
2.0566513074 7.8206608266 2.0367654962
2.0701913074 7.8673008266 6.0239154962
5.9056213074 3.9580908266 1.9632054962
7.7822913074 5.8651008266 2.0532454962
3.9714513074 2.0991508266 2.0164454962
3.9052213074 2.3229308266 6.0445454962
7.4753389801 3.5107463385 13.5159300378
2.3772229406 3.8308612983 15.7120800378
5.8273367072 7.5960353984 12.0114400378
3.9669113074 0.2159438266 7.9584154962
4.0719330772 7.922332009 4.1046454962
3.9609913074 4.0811908266 4.0178954962
2.0503513074 2.2248508266 8.0126154962
1.9637413074 2.0218308266 4.0018754962
2.0699813074 5.9437108266 7.9386054962
2.0811613074 5.9143408266 4.0593054962
5.9429513074 2.1973208266 7.9513354962
6.0280613074 6.0641808266 7.9669754962
1.9749013074 3.9934708266 1.9394554962
5.8753713074 7.8301108266 2.1142054962
5.9296813074 7.8935008266 5.9661754962
5.9012813074 4.1931908266 6.0425454962
7.7832030293 2.0199508266 2.0467354962
7.8387140293 2.2032108266 6.0216754962
4.0199813074 5.8396208266 2.0360454962
4.1191628403 3.8914688605 13.5543800378
5.616584312 1.5426212646 13.5501300378
6.2816547523 5.6725284544 14.0384700378
2.0670989431 7.4371417751 11.9804600378
2.090729931 4.1341384069 11.8230700378
6.0708185965 -0.0858496547 15.3550300378
7.8129155475 5.6601393637 15.8665900378
4.011080125 2.3281374741 11.7792500378
7.8562513074 4.1785408266 7.9796854962
4.0743013074 4.1667408266 7.9577254962
5.8789613074 2.0497408266 4.0263954962
6.0222913074 5.9391908266 4.0581554962
2.0138513074 4.1321208266 6.0776954962
0.2053853074 5.9798308266 5.9756354962
3.9730413074 6.0084508266 6.0399754962
0.1345851571 7.5413450138 10.5029590378
0.4297793006 0.3520405261 13.5956900378
7.4611624814 4.0737592651 10.1429160378
4.024576068 0.2856865577 10.4761420378
2.12762652 1.6783900355 13.7241600378
6.0615002184 4.0806010018 11.6802600378
5.5913723408 3.283979207 15.4671500378
0.1792657004 1.7617961351 11.8544400378
3.8694198385 1.5426430189 15.4261500378
4.0864333461 5.9539424618 11.7944300378
4.1833130676 5.964188751 15.4284500378
3.8747491132 7.2670555493 13.6794900378
2.0897656134 2.250374299 10.0126154962
1.7093569868 5.7793639669 10.0328813378
1.7754023 5.601348288 13.8266100378
2.1353534448 7.5166647269 15.9526700378
0.2601031535 1.7228558851 15.7509300378
7.3909710135 5.9617522661 12.2006200378
