Al3 Ni2                                 
   1.00000000000000     
     4.0401270752948122   -0.0000000133048365   -0.0000000000000000
    -2.0200645606691832    3.4988514431003241   -0.0000000000000000
     0.0000000000000000   -0.0000000000000000    4.9115484597316534
   Al   Ni
     3     2
Direct
 -0.0000000000000000  0.0000000000000000 -0.0000000000000000
  0.3333330000000032  0.6666669999999968  0.6476958184317597
  0.6666669999999968  0.3333330000000032  0.3523041815682403
  0.3333330000000032  0.6666669999999968  0.1469147181097533
  0.6666669999999968  0.3333330000000032  0.8530852818902466
 
  0.00000000E+00  0.00000000E+00  0.00000000E+00
  0.00000000E+00  0.00000000E+00  0.00000000E+00
  0.00000000E+00  0.00000000E+00  0.00000000E+00
  0.00000000E+00  0.00000000E+00  0.00000000E+00
  0.00000000E+00  0.00000000E+00  0.00000000E+00
