Al1 Cu2 Zr1 
1.0
3.0753520267242673e+00 0.0000000000000000e+00 0.0000000000000000e+00 
7.4257230195228098e-18 3.0753520267242678e+00 0.0000000000000000e+00 
-1.6123944446748612e-17 9.3812040417446504e-18 6.4914801231237433e+00 
Al Cu Zr 
1 2 1 
Cartesian
   1.5376760134    1.5376760134    1.6228700308
   3.0753520267    3.0753520267    0.2548399301
   3.0753520267    3.0753520267    2.9908975349
   1.5376760134    1.5376760134    4.8686100923
