Al12 Ta17 
1.0
8.6284985473226303e+00 0.0000000000000000e+00 0.0000000000000000e+00 
-2.8762192385174501e+00 8.1351765109844543e+00 0.0000000000000000e+00 
-2.8761994449629178e+00 -4.0675602632288683e+00 7.0452210386740610e+00 
Al Ta 
12 17 
Cartesian
  -1.6022144782    0.0269743764    2.6008772056
   0.5595041424   -1.5016293457    2.6009335674
   1.2738278138    1.8016919868    5.7681267758
  -0.2310223859   -2.5388833127    7.0451999030
   4.1501072293   -1.8285737704    5.7214592316
   2.6450537168   -0.7642361825    1.3237124905
  -3.1073448645    3.3034006421    5.7215226386
   0.5593614592    3.0029841964    0.0000040186
  -1.6022368629    2.2389929445    1.3237688523
   1.2739190082    4.0945496185    4.4443367878
   4.1500257155    5.8692542632    1.2770801725
   3.4355979570    2.5659662223    4.4443086069
  -2.8759128813   -4.0673365223    7.0452139935
   0.9975021527    1.4106859232    2.4433178823
  -0.2528961046   -0.3576753680    5.0860437009
  -1.8786423788   -2.6569039666    4.6019172468
   5.4993350996    0.5159723510    4.8118789242
   4.4057098810    1.2894384180    2.2332998432
   2.6232677329   -0.1582694720    4.1923996835
   1.5296346426   -2.7781396343    4.8119211955
   1.8525816808   -0.7733059545    7.0452139935
  -0.2529932814    4.5835503613    2.2333280240
  -3.1290902162    3.9093134610    2.8528213552
  -1.0236961673    2.4205286035    4.1924349096
   1.5297265377    5.5557221490    0.0000024334
   2.7595299845    8.1350332650    0.0000226607
   1.8522362677    6.4881196713    2.8527720386
   6.7496590750    5.3136680556    0.0000025227
   2.6232672103    3.7099085989    1.9591773378
