fcc_Al4_Cu4_Nb12_Ni0_Ta8_W0_Zr4         
   1.00000000000000     
     8.3471511026718055   -0.0000000000000000   -0.0000000000000000
    -0.0000000000000000    8.3471511026718055    0.0000000000000000
    -0.0000000000000000    0.0000000000000000    8.2227827750518507
   Al   Cu   Nb   Ta   Zr
     4     4    12     8     4
Direct
  0.0029245218067304  0.5029245218067304 -0.0030116545492228
  0.2470754781932696  0.7470754781932695 -0.0030116545492228
  0.0029245218067304  0.7470754781932695  0.2530116545492228
  0.2470754781932696  0.5029245218067304  0.2530116545492228
  0.5112024037338393  0.0112024037338392  0.0117745173456498
  0.7387975962661607  0.2387975962661608  0.0117745173456498
  0.5112024037338393  0.2387975962661608  0.2382254826543501
  0.7387975962661607  0.0112024037338392  0.2382254826543501
  0.5085520285023539  0.0085520285023540  0.4865848622412742
  0.7414479714976461  0.2414479714976460  0.4865848622412742
  0.5085520285023539  0.2414479714976460  0.7634151377587258
  0.7414479714976461  0.0085520285023540  0.7634151377587258
 -0.0040646612372355 -0.0043213795281822  0.0250641227341421
  0.2540646612372355  0.2543213795281821  0.0250641227341421
 -0.0040646612372355  0.2543213795281821  0.2249358772658579
  0.2540646612372355 -0.0043213795281822  0.2249358772658579
  0.4956786204718180  0.4959353387627645  0.0250641227341421
  0.7543213795281819  0.7540646612372355  0.0250641227341421
  0.4956786204718180  0.7540646612372355  0.2249358772658579
  0.7543213795281819  0.4959353387627645  0.2249358772658579
  0.5144515737432819  0.4923360283142987  0.4724422524369674
  0.7355484262567181  0.7576639716857012  0.4724422524369673
  0.5144515737432819  0.7576639716857012  0.7775577475630330
  0.7355484262567181  0.4923360283142987  0.7775577475630330
 -0.0076639716857014  0.0144515737432819  0.4724422524369674
  0.2576639716857013  0.2355484262567181  0.4724422524369674
 -0.0076639716857014  0.2355484262567181  0.7775577475630330
  0.2576639716857013  0.0144515737432819  0.7775577475630330
 -0.0126781624725552  0.4873218375274447  0.4950751431394861
  0.2626781624725552  0.7626781624725553  0.4950751431394861
 -0.0126781624725552  0.7626781624725553  0.7549248568605139
  0.2626781624725552  0.4873218375274447  0.7549248568605138
 
  0.00000000E+00  0.00000000E+00  0.00000000E+00
  0.00000000E+00  0.00000000E+00  0.00000000E+00
  0.00000000E+00  0.00000000E+00  0.00000000E+00
  0.00000000E+00  0.00000000E+00  0.00000000E+00
  0.00000000E+00  0.00000000E+00  0.00000000E+00
  0.00000000E+00  0.00000000E+00  0.00000000E+00
  0.00000000E+00  0.00000000E+00  0.00000000E+00
  0.00000000E+00  0.00000000E+00  0.00000000E+00
  0.00000000E+00  0.00000000E+00  0.00000000E+00
  0.00000000E+00  0.00000000E+00  0.00000000E+00
  0.00000000E+00  0.00000000E+00  0.00000000E+00
  0.00000000E+00  0.00000000E+00  0.00000000E+00
  0.00000000E+00  0.00000000E+00  0.00000000E+00
  0.00000000E+00  0.00000000E+00  0.00000000E+00
  0.00000000E+00  0.00000000E+00  0.00000000E+00
  0.00000000E+00  0.00000000E+00  0.00000000E+00
  0.00000000E+00  0.00000000E+00  0.00000000E+00
  0.00000000E+00  0.00000000E+00  0.00000000E+00
  0.00000000E+00  0.00000000E+00  0.00000000E+00
  0.00000000E+00  0.00000000E+00  0.00000000E+00
  0.00000000E+00  0.00000000E+00  0.00000000E+00
  0.00000000E+00  0.00000000E+00  0.00000000E+00
  0.00000000E+00  0.00000000E+00  0.00000000E+00
  0.00000000E+00  0.00000000E+00  0.00000000E+00
  0.00000000E+00  0.00000000E+00  0.00000000E+00
  0.00000000E+00  0.00000000E+00  0.00000000E+00
  0.00000000E+00  0.00000000E+00  0.00000000E+00
  0.00000000E+00  0.00000000E+00  0.00000000E+00
  0.00000000E+00  0.00000000E+00  0.00000000E+00
  0.00000000E+00  0.00000000E+00  0.00000000E+00
  0.00000000E+00  0.00000000E+00  0.00000000E+00
  0.00000000E+00  0.00000000E+00  0.00000000E+00
