Al3 Zr1 
1.0
4.0980385386558247e+00 0.0000000000000000e+00 0.0000000000000000e+00 
1.6502083725096118e-18 4.0980385386558247e+00 0.0000000000000000e+00 
0.0000000000000000e+00 -3.9605000940230685e-18 4.0980385386558247e+00 
Al Zr 
3 1 
Cartesian
   0.0000000000    2.0490192693    2.0490192693
   2.0490192693   -0.0000000000    2.0490192693
   2.0490192693    2.0490192693    0.0000000000
   0.0000000000    4.0980385387    0.0000000000
