Converted from final.data
1.0
14.8314580897677573 0.0000000000000000 0.0000000000000000
0.0124852446152986 14.7068598763175800 0.0000000000000000
-0.2482312254647797 0.1820426399823077 38.2317048022581929
Al Cu Ni Zr Nb Ta
10 9 11 17 13 4
Direct
0.4276865738293437 0.9033489721730255 0.3368223986573926
-0.0153570186961429 0.8896390222396497 0.2887191355179873
0.1665475271275334 0.5734159232779461 0.4395068554798608
0.6084155681732309 0.2650433486941071 0.3795673186444289
0.2723301883081788 0.7703026102840629 0.1746007974189321
0.2334837252172147 0.9491176408024130 -0.0290308372785270
0.6123313461971679 0.6195904210076076 0.1422945390293857
0.5079955307674071 0.1421875677699849 0.3497395418018076
0.2071309376395658 0.1069295133915493 0.3285806855820284
0.5158914411336057 0.4404728383116019 0.3500951845188446
0.5380289940234360 0.6387156357206923 0.2422187177637453
0.3871726764560952 0.1877221310286060 0.2554291845376882
0.1123190980881581 0.7071626369071908 0.1514446124759580
0.5058872308126739 0.0924908753266565 0.2245058261832583
0.4576039058883219 -0.0075379082218420 0.0828310250649583
0.2101988622160089 0.3041540903902984 0.2028839984873551
0.4447489561734621 0.5416571553142385 0.4542462700565459
-0.0275559303392966 0.6131444203870513 0.6984668974730658
0.2064530883616251 0.3622514219603424 0.3038748064650870
0.5103646456624430 0.4873451240513667 0.5664794291221568
0.4694061903657632 0.4161524832256160 0.1991292078429706
0.5191927088757364 0.2829396211815363 0.2414344550505055
0.3113050439282889 0.6328543584642550 0.4566215281114015
0.7793697828229286 0.6188476313924297 0.4242031230865399
0.2231788811402612 -0.0144836589767314 0.2286644716445330
0.2360055688921086 0.0971346296095049 0.1811785068410389
0.2729044370243384 0.2880599475265946 0.1049678248878645
0.0097614228557937 0.3661497855960985 0.1671943315695630
0.1360610402169959 0.3750908491787744 0.2525488643774819
0.5607700562672318 -0.0122734128582471 0.3338044634364310
0.1273090220937844 0.7390287282913413 0.2757113713392212
0.8937633154492685 0.9870869356482257 0.2349622369819496
0.0352279104506519 0.4768148918792064 0.4863511986906718
0.7736455190919731 0.6202364509392010 0.3570361905452862
0.3480030031550035 0.2301237803373832 0.3271488581738968
0.5212150710455252 0.3658011656234263 0.4433019186926044
0.2196364291876759 0.1715260386168397 0.2571707585439234
0.9771499464037772 0.8610426732390709 0.1755703687898016
0.9362160369004500 0.4701532241967586 0.1290479147828766
0.0824866034429405 0.0455879104393537 0.2860583313475936
0.0452341032075155 0.0687578618949594 0.2009230757279254
0.2422171865843922 0.5238534993611319 0.5071754423201686
-0.0120168990381344 0.8226930195489723 0.5237197780273957
0.2947580857168672 0.9633394767707142 0.4160896699198127
0.0015435837975227 0.2699375393846468 0.5022643751560703
0.5635272986055232 0.2708568929854404 0.3058104625303222
0.0303854021408358 0.0485686109626052 0.4941231733654511
0.3805357395286794 0.7295122807979076 0.5096511573322963
0.5317059983546834 0.9448491508752862 0.1952079446871200
0.7871174261878727 0.4476859431077360 0.0754512813296079
0.7198538579760986 0.5859267475468490 0.9988700377917907
0.9640193243790028 0.3305544275589712 -0.0178480017830473
0.8384906150634923 0.5170960720989762 0.2818279619986359
0.1471020496482928 0.3644367556204656 0.4382003000251955
0.1908968437962245 0.1888340896067259 0.4531359357686149
0.0229852233201575 0.4284572637105351 0.5617449938009555
0.2869985018207379 0.4725515333402841 0.0761192092779898
0.0018292984591393 0.1661987751018023 0.4240120165839778
0.1972334689525472 0.2699174798879807 0.3784686235011970
0.7350932186997446 0.6696944280943032 0.5058873904184685
0.1890104850564379 0.4705348315031337 0.3678398682130143
0.9476261217711559 0.3935082615232611 0.0489649043661480
0.9809382668783163 0.2609064611230410 0.5878588863416686
0.7001775566113571 0.9076935910915853 0.5008778145132889
