Al2 Ni6 
1.0
5.0571936795906653e+00 0.0000000000000000e+00 0.0000000000000000e+00 
-2.5285968392132006e+00 4.3796581985287624e+00 0.0000000000000000e+00 
-1.0943508635329093e-16 -3.8169609986106541e-17 4.1078502886599981e+00 
Al Ni 
2 6 
Cartesian
  -0.0000025282    2.9197735922    3.0808877165
   2.5285993686    1.4598846063    1.0269625722
   0.0000000002    1.4532406648    1.0269625722
   1.2700535068    3.6530378661    1.0269625722
  -1.2700535058    3.6530378661    1.0269625722
   2.5285968402    2.9264175337    3.0808877165
   1.2585483908    0.7266203324    3.0808877165
   3.7986503462    0.7266203324    3.0808877165
