Ta30 
1.0
1.0181679607880564e+01 0.0000000000000000e+00 0.0000000000000000e+00 
-1.1591541809094204e-06 1.0181679607795024e+01 0.0000000000000000e+00 
-3.9898015902081121e-07 5.0112912860766795e-07 5.3483146740692806e+00 
Ta 
30 
Cartesian
   1.3431053440    4.7460476562    2.6741573370
   1.8816657132    1.8816661513    1.3301686460
   4.0750944195    4.0750953334    2.6741573370
  -0.0000001992    0.0000002539    2.6741573370
   4.4468075647    2.4355799423    0.0000000328
   1.8816655127    1.8816664031    4.0181460281
   4.7460470533    1.3431063343    2.6741573370
   2.4356299455    4.4468592515    5.3483146741
   9.8370700532    3.7474995415    0.0000000036
   9.1659343722    1.0157462403    5.3483146741
   7.5266638338    0.6442236281    2.6741573370
   9.5374536923    2.6550157518    2.6741573370
   6.9725053650    3.2091739032    1.3439886911
   6.9725051665    3.2091741525    4.0043259830
   6.4341393004    0.3445592378    0.0000000048
   5.0908388254    5.0908403050    5.3483146741
   2.6550142160    9.5374544445    2.6741573370
   3.2091726848    6.9725062057    4.0043259830
   0.3446069783    6.4341805674    5.3483146741
   3.2091728832    6.9725059565    1.3439886911
   3.7475387493    9.8371218893    5.3483146741
   0.6442223211    7.5266643571    2.6741573370
   1.0157446957    9.1659348868    0.0000000099
   8.8385727058    5.4356324527    2.6741573370
   8.3000123365    8.3000139577    4.0181460281
   5.4356309964    8.8385737746    2.6741573370
   5.7348704850    7.7461001666    5.3483146741
   6.1065836303    6.1065847755    2.6741573370
   8.3000125371    8.3000137058    1.3301686460
   7.7460481042    5.7348208574    0.0000000306
