Al1 Cu3 
1.0
3.6849137466377102e+00 0.0000000000000000e+00 0.0000000000000000e+00 
0.0000000000000000e+00 3.6849137466377102e+00 0.0000000000000000e+00 
0.0000000000000000e+00 0.0000000000000000e+00 3.6849137466377102e+00 
Al Cu 
1 3 
Cartesian
   3.6849137466    3.6849137466    0.0000000002
   1.8424568733    1.8424568733    0.0000000000
   1.8424568733    0.0000000001    1.8424568733
   3.6849137466    1.8424568733    1.8424568733
