bcc_Al3_Cu6_Nb0_Ni0_Ta12_W3_Zr0         
   1.00000000000000     
     9.9306761427999621    0.0000000000000000    0.0000000000000000
     0.0000000000000000    6.2603380535820730   -0.0813400953195405
     0.0000000000000000   -0.0813400953195405    6.2603380535820730
   Al   Cu   Ta   W 
     3     6    12     3
Direct
  0.0000000000000000 -0.0048106552359325  0.5048106552359326
  0.3333333333333357 -0.0048106552359325  0.5048106552359326
  0.6666666666666643 -0.0048106552359325  0.5048106552359326
  0.1666666666666643  0.7596974610844740  0.2612470890714227
  0.5000000000000000  0.7596974610844740  0.2612470890714227
  0.8333333333333357  0.7596974610844740  0.2612470890714227
  0.1666666666666643  0.2387529109285772  0.7403025389155260
  0.5000000000000000  0.2387529109285772  0.7403025389155260
  0.8333333333333357  0.2387529109285772  0.7403025389155260
  0.0000000000000000  0.5050617526107642  0.5021275103579502
  0.3333333333333357  0.5050617526107642  0.5021275103579502
  0.6666666666666643  0.5050617526107642  0.5021275103579502
  0.0000000000000000 -0.0021275103579501 -0.0050617526107641
  0.3333333333333357 -0.0021275103579501 -0.0050617526107641
  0.6666666666666643 -0.0021275103579501 -0.0050617526107641
  0.0000000000000000  0.5043134037095196 -0.0043134037095196
  0.3333333333333357  0.5043134037095196 -0.0043134037095196
  0.6666666666666643  0.5043134037095196 -0.0043134037095196
  0.1666666666666643  0.2470171945534468  0.2529828054465533
  0.5000000000000000  0.2470171945534468  0.2529828054465533
  0.8333333333333357  0.2470171945534468  0.2529828054465533
  0.1666666666666643  0.7520954427071009  0.7479045572928991
  0.5000000000000000  0.7520954427071009  0.7479045572928991
  0.8333333333333357  0.7520954427071009  0.7479045572928991
 
  0.00000000E+00  0.00000000E+00  0.00000000E+00
  0.00000000E+00  0.00000000E+00  0.00000000E+00
  0.00000000E+00  0.00000000E+00  0.00000000E+00
  0.00000000E+00  0.00000000E+00  0.00000000E+00
  0.00000000E+00  0.00000000E+00  0.00000000E+00
  0.00000000E+00  0.00000000E+00  0.00000000E+00
  0.00000000E+00  0.00000000E+00  0.00000000E+00
  0.00000000E+00  0.00000000E+00  0.00000000E+00
  0.00000000E+00  0.00000000E+00  0.00000000E+00
  0.00000000E+00  0.00000000E+00  0.00000000E+00
  0.00000000E+00  0.00000000E+00  0.00000000E+00
  0.00000000E+00  0.00000000E+00  0.00000000E+00
  0.00000000E+00  0.00000000E+00  0.00000000E+00
  0.00000000E+00  0.00000000E+00  0.00000000E+00
  0.00000000E+00  0.00000000E+00  0.00000000E+00
  0.00000000E+00  0.00000000E+00  0.00000000E+00
  0.00000000E+00  0.00000000E+00  0.00000000E+00
  0.00000000E+00  0.00000000E+00  0.00000000E+00
  0.00000000E+00  0.00000000E+00  0.00000000E+00
  0.00000000E+00  0.00000000E+00  0.00000000E+00
  0.00000000E+00  0.00000000E+00  0.00000000E+00
  0.00000000E+00  0.00000000E+00  0.00000000E+00
  0.00000000E+00  0.00000000E+00  0.00000000E+00
  0.00000000E+00  0.00000000E+00  0.00000000E+00
