Cu20 Zr14 
1.0
9.4353248363911160e+00 0.0000000000000000e+00 0.0000000000000000e+00 
1.1112135959122128e-04 7.8933146619354231e+00 0.0000000000000000e+00 
3.2609442252176191e-06 2.3012820616667722e+00 7.5505985235525657e+00 
Cu Zr 
20 14 
Cartesian
   1.9273281388    1.0217569999    0.5982210850
   2.7903632030    3.1289531487    2.1588671299
   4.6584544802    4.9108723529    6.0207264531
   4.6583735843    1.9055600250    3.7948628626
   0.0593642989    4.7015759869    0.0195599010
   3.7597306732    2.3421569751    6.3472898392
   7.5079990530    0.8700813080    0.8030061530
   6.6450112741    2.9772702539    2.3636544630
   9.3760786375    4.3947580054    6.7176164944
   4.7769912868    4.1854681288    0.7164453364
   9.3760543535    1.3894489804    4.4917453533
   8.4774242619    3.9581721059    4.1651895177
   2.7904156221    6.1190546713    4.3735180816
   1.9274278433    8.2262515105    5.9341663916
   0.0593569745    7.7068886531    2.2454271913
   0.9580026346    5.1381709072    2.5719905775
   6.6450636933    5.9673796698    4.5783054148
   7.5080987574    8.0745686157    6.1389537248
   4.7770344414    7.1907743055    2.9423172327
   5.6756962232    6.7541886362    0.3898910110
   1.8288228176    3.4794549711    4.8115736055
   4.7176779654    1.3856847730    1.0263151043
   9.4353541581    2.6133575771    1.9355581785
   4.7177134481    4.5481664093    3.3685862723
   6.5464725323    2.8208536540    5.7008982008
   2.3589037369    5.7504696057    7.0740651495
   2.3589199258    8.5464859058    3.2987658878
   2.8889543638    6.2754712713    1.0362743438
   0.0000757625    6.4829831348    4.8016143661
   4.7177489310    7.7106559389    5.7108574403
   9.4354330575    9.6454647711    7.1438855341
   7.0765992211    8.4431513801    3.4383991063
   7.0765452909    5.6471350800    7.2136983680
   7.6066040786    5.6168676528    1.9255913885
