Al3 Cu1
1.0
  -1.9646293200000000   -1.9646293200000000    0.0000000000000000
  -1.9646293200000000    1.9646293200000000    0.0000000000000000
   0.0000000000000000   -0.0000000000000000   -7.5134034100000004
Al Cu
3 1
direct
  -0.0000000000000000   -0.0000000000000000    0.5000000000000000 Al
   0.5000000000000000    0.5000000000000000    0.7738844900000000 Al
   0.5000000000000000    0.5000000000000000    0.2261155100000000 Al
  -0.0000000000000000   -0.0000000000000000   -0.0000000000000000 Cu
