Al1 Cu1 
1.0
2.9895140232478497e+00 0.0000000000000000e+00 0.0000000000000000e+00 
7.0524738496705830e-17 2.9895140232478497e+00 0.0000000000000000e+00 
1.4104947699341166e-16 1.2694452929407046e-16 2.9895140232478497e+00 
Al Cu 
1 1 
Cartesian
   2.9895140232    2.9895140232    2.9895140232
   1.4947570116    1.4947570116    1.4947570116
