Converted from final.data
1.0
14.4330356409429719 0.0000000000000000 0.0000000000000000
-0.2404583360418658 13.8147654064807313 0.0000000000000000
0.0812802468889476 -0.1944174092974437 31.8105333839579458
Al Cu W Zr Nb Ta
1 3 14 5 18 6
Direct
0.7677589486731520 0.2063295113475491 0.9674846390404055
0.3375161531316642 0.1636335470937935 0.3107567791236763
0.5765136107352880 0.9514172167853175 0.1121484296247492
0.9682542882525739 0.8488910494487647 0.3174201319716635
0.2503068517083931 -0.0179205040138022 0.1134155109063161
0.5696625086550757 0.1035649068326632 0.3402661679434543
0.5194475324296981 0.0511133837094071 0.2029471500400753
0.4387476440009071 0.7678951342027799 0.3982025596048330
0.1657176521379863 0.6241866679451302 0.3332538120020750
0.9200402327877413 0.3016144948741830 0.4785368415665636
0.0346861070561936 0.2215567586499527 0.9170335852309962
0.5366654814904085 0.0776683017980828 0.8541055040930629
0.4002480371116046 0.6795233375269991 0.3168603724569859
0.1174913017097558 0.0812392151756749 0.4094249783669664
0.4188496297424250 0.0628653371518634 0.3674970706441579
0.9534895968007795 0.4329579092616786 0.2408758672882096
0.2502830275174603 0.8731407680392860 0.0582990676302927
0.3845274256404960 0.0378536636536152 -0.0254423331790285
0.8063529307807024 0.7596571670432860 0.3227527080031323
0.8300583290950376 0.0671998642061909 0.2074975697080271
0.4212961721913013 0.0594738515174783 0.1135885656260327
0.9284397585149140 0.9498077022133327 0.0643921006062795
0.4058324164576632 0.9056034309497119 0.4499760224011376
0.9391787397355599 0.4804983151960494 0.5245795458533155
0.1888640904476727 0.0053380108874402 0.0343543641408002
0.0913111808362335 0.5656079333311300 0.1529232299710892
0.9579278842733072 0.6374395211801742 0.1855933876857841
0.5722368528341460 0.5601343205107611 0.6107583984235571
0.1196316426593085 0.7991008727167778 -0.0024344045009579
0.0481665546119593 0.4500572147661097 0.4738660605513043
0.6822634308943789 0.9895602925845621 0.8350929575671151
0.7395412382897809 0.1208337716908065 0.3780253450781065
0.0258501695637669 0.4435178870657648 0.3122557383814695
0.1488911462633802 0.4359349045844726 0.5500576551818986
0.0136854136739850 0.1249869601515006 0.4842335730919223
0.0292285608813134 0.9449697367725056 0.4437798087387231
0.1060656520685332 0.7351194793149366 0.4852804072419790
0.0506665779375693 0.8629641743981278 0.9523746571373611
0.4757835419040568 0.3177216454042282 0.3015635412128697
0.4247638121145719 0.8855356420662152 0.1418229585447190
0.6526227873693294 0.3043720097002913 0.3224908837643102
0.7124251551059674 0.5242382111664995 -0.0195672151594902
0.0620569199421752 0.0594443696025416 0.0913335693732363
-0.0255785505835287 0.2654227017514602 0.2702607449835787
0.5369840643658927 0.2055329622463072 0.4068391796727857
0.3230071031924285 -0.0162399065350306 0.2004015391445960
0.2589250483562426 0.0483064410420380 0.4748958631191441
