Ni3 Cu6 Ta15 
1.0
8.1408309553840574e+00 0.0000000000000000e+00 0.0000000000000000e+00 
-1.9420193721985592e-04 5.2283313402217066e+00 0.0000000000000000e+00 
3.3378048701210041e-05 7.2771218344247116e-02 9.0829198564499993e+00 
Ni Cu Ta 
3 6 15 
Cartesian
   2.6059578028    3.6278097774    2.2769971788
   0.1074773524    3.6278672890    2.2769971788
   1.3567385402    2.8352779433    9.0578237489
   4.1278438112    0.8185578573    2.2389579105
   6.7265435871    0.8185578573    2.2389579105
   5.4272130908    0.0643948828    0.0687333611
   1.3567184161    2.6776925773    4.5676914008
   0.0654505131    3.6558918727    6.8111635224
   2.6479570366    3.6558918727    6.8111635224
   4.0161322145    2.4492420946    4.4066875634
   0.0152772960    5.1175422377    4.4387048559
   2.6979431491    5.1175420922    4.4386866900
   1.3567584471    1.3424047949    2.1592825375
   2.7446163516    5.0444467775    0.1143348869
   3.9191027913    2.3974513328    0.1109369665
   8.1094320918    5.0444519330    0.1143258039
   6.8381431243    2.4492420218    4.4066784805
   5.4271142205    3.6041280728    2.1298447942
   5.4270301805    5.0218469305    4.4770620264
   6.9351748297    2.3974462282    0.1109524075
   1.3567910377    1.1937628594    6.9243094550
   4.0585508090    1.0440668438    6.8377128971
   5.4271237487    3.6464481463    6.9734843831
   6.7958726541    1.0440773004    6.8377128971
