Converted from final.data
1.0
15.2940833459647472 0.0000000000000000 0.0000000000000000
-0.9165879414935424 32.3556597139632629 0.0000000000000000
-0.3827129643356335 0.1646807007332870 14.3529653098217267
Al Cu W Nb Ta
16 24 7 2 13
Direct
0.0011984012065060 0.1078034678284606 0.9536040221813111
0.3948146100019388 0.1037979325563123 0.1064460921483027
0.2518228458842862 0.1069302734784489 0.3707053940851637
0.0905132137900753 0.0836348302547014 0.0996392887568288
0.3669890703752802 0.0072128293834349 0.0538817323356645
0.4341217362438485 0.0035213320213829 0.2393684242299020
0.5287372702242493 0.0477657421421306 0.0716429300836744
0.2038425807768150 0.1968258160243183 0.0327300869865732
0.3948391919482285 0.1402635846300216 0.2778380336119540
0.5831495466076831 0.2035132826137439 0.4603840820440150
0.2866859250771527 0.2326462406001713 0.1921239341130606
0.2513292568367366 0.3717086980326582 0.1393111074871129
0.2082046510666053 0.4063705525723616 0.9721079447752550
0.0936776765699168 0.3688575812760828 0.2836721473572821
0.3531535518233516 0.2558380861308178 0.0054153260666567
0.1651140550224302 0.4356466687311085 0.3305577210146166
0.9730992413416543 0.0070796075157025 0.8540999409457173
0.0842896710925749 0.0550557423928931 0.8771123935229146
0.1738218574138395 0.0604378213317911 0.2523847792388912
0.4473489507096360 0.2355653676313338 0.5293423510737252
0.1295443262996233 0.0123533579399378 0.1290106358218543
0.4811376492577413 0.0763933586286557 0.2414494834435341
0.2507535034880106 0.0654327613132390 0.0823655737034499
0.2779040612089970 -0.0022698579072048 0.1885668954979901
0.2579223075335587 0.0346493588773019 0.3945807406254280
0.1557642725316095 0.1293445949347515 0.9997068860881844
0.3389596684845870 0.0581377254451979 0.9385725270438345
0.3253344814756035 0.0631426797854468 0.2515474878948633
0.3690771392078814 0.1844821020361299 0.1104999498956201
0.3104367716446765 0.1334380108443450 -0.0154572669038548
0.3145637664206770 0.4436591875868796 0.2043645890460895
0.3337555644273805 0.4246391914063466 0.0396141116107922
0.4144565626874616 0.1811438350548198 0.4134349058516263
0.4001090543374666 0.4802412683997502 0.9448885749909659
0.5829840903314385 0.2600144234134166 0.5827699304477185
0.5246528464027709 0.2721626787624233 0.3912985740590376
0.0985147870648403 0.3580414574151396 0.1137195614885728
0.4452028239593374 0.2114878590628169 0.2593375775459391
0.4602771021385400 0.0043752480136282 0.9340293535207393
0.4846075714123998 0.1058000297584474 0.9771005928634323
0.3593055272557123 0.3078121585036004 0.1646180331912822
0.4806628964930499 0.3139489582120770 0.0198737212313925
0.2968234054437089 0.3806123703973228 0.3175939591339587
0.1210864099182360 0.3324120633829318 0.9549229561004908
0.0192057849342582 0.3989915688737788 -0.0067989537124812
0.4419924026902997 0.3461896823511245 0.3438596709190940
0.4614608934269955 0.4265025137862802 0.3113720688460740
0.1339691217717391 0.4409716706774209 0.1396364983133043
0.1171053783086732 0.2117058477532002 0.2279393881710374
0.1973798807752731 0.2907212102751693 0.0871644611199939
0.0838300093407473 0.1318357031432551 0.2903483781936013
0.2485301446099497 0.1873370732397480 0.3514769009205928
0.2311957410727059 0.1415726460681680 0.1932447635323853
0.1306889798726474 0.9852130166433142 0.2916393962041227
0.4458790180931040 0.3806943837860774 0.1597815855884266
0.1841342759258853 0.2619868094963754 0.9129013573715624
0.4590799760658112 0.4710814018184903 0.1231967806376923
0.3237497153498746 0.3419823717493503 0.9900894568679310
0.1293598603711679 0.4823284141015969 0.4810519996555344
0.6882359633347789 0.0039472667300747 0.1221287300597168
0.6235193619045009 0.4368873052240279 0.1576720422209555
0.9802816867993652 0.3088271799470724 0.0413075630050077
