Cu2 Zr2 
1.0
4.0285364439794460e+00 0.0000000000000000e+00 0.0000000000000000e+00 
7.8545160502716257e-15 3.3520946172319230e+00 0.0000000000000000e+00 
-2.2342112361848883e-14 1.6760473098837478e+00 5.3066863910185136e+00 
Cu Zr 
2 2 
Cartesian
   3.0214023330    4.1901199484    3.3988954866
   1.0071341110    0.8380229843    1.9077909044
   3.0214023330    2.5140692871    1.0145269975
   1.0071341110    2.5140726400    4.2921593935
