Cu-Zr from LAMMPS dump
1.0
16.2382092166515406 0.0000000000000000 0.0000000000000000
-1.9716044593115272 19.1135579541588889 0.0000000000000000
2.4897488925566504 -5.0397804028856248 18.8226277536910551
Cu Zr
26 230
Direct
0.2524410000000000 0.1911590000000000 0.2644370000000000
0.0251644000000000 0.4622990000000000 0.3347740000000000
0.4937990000000000 0.3625110000000000 0.4628910000000000
0.1085120000000000 0.1465600000000000 0.5263750000000000
0.0503671000000000 0.3853770000000000 0.8791290000000000
0.4345880000000000 0.3190020000000000 0.5626340000000000
0.1213130000000000 0.6513030000000000 0.4744210000000000
0.4175740000000000 0.7498680000000000 0.4511110000000000
0.2640800000000000 0.9890360000000000 0.1684830000000000
0.1643860000000000 0.8708560000000000 0.1756920000000000
0.3136390000000000 0.7019710000000000 0.9862410000000000
0.3398340000000000 0.5702890000000000 0.9622690000000000
0.0736097000000000 0.7904870000000001 0.7958940000000000
0.1527880000000000 0.8947840000000000 0.6268880000000000
0.2922220000000000 0.7145089999999999 0.5282930000000000
0.5964469999999999 0.1056990000000000 0.3739670000000000
0.8197010000000000 0.0584291000000000 0.9102789999999999
0.9161270000000000 0.1435590000000000 0.7769460000000000
0.8158390000000000 0.1639540000000000 0.6966770000000000
0.7470630000000000 0.3796910000000000 0.8545610000000000
0.8902870000000001 0.4415450000000000 0.8405040000000000
0.8362050000000000 0.3880960000000000 0.7212970000000000
0.9568200000000000 0.4977460000000000 0.9443980000000000
0.8694130000000000 0.6505430000000000 0.1691530000000000
0.5892280000000000 0.9101780000000000 0.0207998000000000
0.8201510000000000 0.8229880000000001 0.9981150000000000
0.1872030000000000 0.1031290000000000 0.1273390000000000
0.1444220000000000 0.1720220000000000 0.3984580000000000
0.1367820000000000 0.0231312000000000 0.4011750000000000
0.0778677000000000 0.1952410000000000 0.2486630000000000
0.1331580000000000 0.0338243000000000 0.2423030000000000
0.0700163000000000 0.1959090000000000 0.0973976000000000
0.4125160000000000 0.1312060000000000 0.1572680000000000
0.3199390000000000 0.1129520000000000 0.3231240000000000
0.4414260000000000 0.1928200000000000 0.4570750000000000
0.2679170000000000 0.1191530000000000 0.4907770000000000
0.3903170000000000 0.2696590000000000 0.3323980000000000
0.4264420000000000 0.0231176000000000 0.3766300000000000
0.4338910000000000 0.0116125000000000 0.2185350000000000
0.2892010000000000 0.2916200000000000 0.4791910000000000
0.2375310000000000 0.2719490000000000 0.1770510000000000
0.1993600000000000 0.3221690000000000 0.3686640000000000
0.0540801000000000 0.4917210000000000 0.1937890000000000
0.2028020000000000 0.4320310000000000 0.2451240000000000
0.1509200000000000 0.3504210000000000 0.0956157000000000
0.0325983000000000 0.3367450000000000 0.2427830000000000
0.1393620000000000 0.4723980000000000 0.4296490000000000
0.2459850000000000 0.4985400000000000 0.0826170000000000
0.0565690000000000 0.4612950000000000 0.0399853000000000
0.3810720000000000 0.4121990000000000 0.1394310000000000
0.3474950000000000 0.2487150000000000 0.0588984000000000
0.3388020000000000 0.4032830000000000 0.3172490000000000
0.3144930000000000 0.4493180000000000 0.4834730000000000
0.4580650000000000 0.3069860000000000 0.1963620000000000
0.4982260000000000 0.4857060000000000 0.3993640000000000
0.1915610000000000 0.1449690000000000 0.6416020000000000
0.0625693000000000 0.2347330000000000 0.8041740000000001
0.0118427000000000 0.2336250000000000 0.9833940000000000
0.0710149000000000 0.0540348000000000 0.7193800000000000
0.1983360000000000 0.1753400000000000 0.9690569999999999
0.2227040000000000 0.1705730000000000 0.8011280000000000
0.0237485000000000 0.0858587000000000 0.8832200000000000
0.0782764000000000 0.0505125000000000 0.9940690000000000
0.4117240000000000 0.1016680000000000 0.5858139999999999
0.3615880000000000 0.1929300000000000 0.8882520000000000
0.2727990000000000 0.0191455000000000 0.6750080000000001
0.3491180000000000 0.0867217000000000 0.9791800000000001
0.2365320000000000 0.0315508000000000 0.8749470000000000
0.4097760000000000 0.1549490000000000 0.7363070000000000
0.3882670000000000 0.0364033000000000 0.8056179999999999
0.1569150000000000 0.4816950000000000 0.6673600000000000
0.1350470000000000 0.3735070000000000 0.5318590000000000
0.1741660000000000 0.3084630000000000 0.9164860000000000
0.0178016000000000 0.3651850000000000 0.7148240000000000
0.1393900000000000 0.2723710000000000 0.6065950000000000
0.1757480000000000 0.3548910000000000 0.7691620000000000
0.2442730000000000 0.4546080000000000 0.9173510000000000
0.3196500000000000 0.2558830000000000 0.6505910000000000
0.3376590000000000 0.3238600000000000 0.8124220000000000
0.3406680000000000 0.3699550000000000 0.9694170000000000
0.4590840000000000 0.4204240000000000 0.6996170000000000
0.3019860000000000 0.4014290000000000 0.6393680000000000
0.4579200000000000 0.4584180000000000 0.8454230000000000
0.4982660000000000 0.3161960000000000 0.9851110000000000
0.0868409000000000 0.6264520000000000 0.1458410000000000
0.0889396000000000 0.5866850000000000 0.3292180000000000
0.0439042000000000 0.7229050000000000 0.3376670000000000
0.2355920000000000 0.7338080000000000 0.4151460000000000
0.2864430000000000 0.6479650000000000 0.1065380000000000
0.2510120000000000 0.6036030000000000 0.2525180000000000
0.4058250000000000 0.5750130000000000 0.1614180000000000
0.4103150000000000 0.6696280000000000 0.3142720000000000
0.2761510000000000 0.5721970000000000 0.3998360000000000
0.4175080000000000 0.5052850000000000 0.2662490000000000
0.4444490000000000 0.5045330000000000 0.0163784000000000
0.4170790000000000 0.6250440000000000 0.4963680000000000
0.2245320000000000 0.9718130000000000 0.0056147300000000
0.0794968000000000 0.9345700000000000 0.1047120000000000
0.0639197000000000 0.8994240000000000 0.2984310000000000
0.1784700000000000 0.8615690000000000 0.4081840000000000
0.1943100000000000 0.7658430000000001 0.2355200000000000
0.1571570000000000 0.7519190000000000 0.0704009000000000
0.4199730000000000 0.7452380000000000 0.2122420000000000
0.4597790000000000 0.7011720000000000 0.0517017000000000
0.2745030000000000 0.9351680000000000 0.3089840000000000
0.4920960000000000 0.9161710000000000 0.4840330000000000
0.3201550000000000 0.8426200000000000 0.1482900000000000
0.3026560000000000 0.9853370000000000 0.4853110000000000
0.3768750000000000 0.8523740000000000 0.3660910000000000
0.4059950000000000 0.9693720000000000 0.0420106000000000
0.1601790000000000 0.6370280000000000 0.7376920000000000
0.0898952000000000 0.7010940000000000 0.8913900000000000
0.2202500000000000 0.5910530000000001 0.5660790000000000
0.1528050000000000 0.5934860000000000 0.9772260000000000
0.0510170000000000 0.5579970000000000 0.5730170000000000
0.0846958000000000 0.5182110000000000 0.8432269999999999
0.0005627810000000 0.6618450000000000 0.7348980000000001
0.2885520000000000 0.5059850000000000 0.7889510000000000
0.3664460000000000 0.5433410000000000 0.6466250000000000
0.2916140000000000 0.6387250000000000 0.8560570000000000
0.4403470000000000 0.7448410000000000 0.8249410000000000
0.4901820000000000 0.6320230000000000 0.8895540000000000
0.4312620000000000 0.8069660000000000 0.9778150000000000
0.3298770000000000 0.7038570000000000 0.6772750000000000
0.1241270000000000 0.9867050000000001 0.5670690000000000
0.1498960000000000 0.7468700000000000 0.6516420000000001
0.0909941000000000 0.9350090000000000 0.7794810000000000
0.2286940000000000 0.7845510000000000 0.8090700000000000
0.1028810000000000 0.8809530000000000 0.9166029999999999
0.0727695000000000 0.7845590000000000 0.5133870000000000
0.2555510000000000 0.8120320000000000 0.9704550000000000
0.4366720000000000 0.7915230000000000 0.5954480000000000
0.3017430000000000 0.8724050000000000 0.7143670000000000
0.4868890000000000 0.8393110000000000 0.7340710000000000
0.4442550000000000 0.9703610000000000 0.6508969999999999
0.3594530000000000 0.9058540000000000 0.8819680000000000
0.3030400000000000 0.8614920000000000 0.5440260000000000
0.6508070000000000 0.2193890000000000 0.1669070000000000
0.7042180000000000 0.1802340000000000 0.2972760000000000
0.6256410000000000 0.2635370000000000 0.4381670000000000
0.5677890000000000 0.0506134000000000 0.1076920000000000
0.6215530000000000 0.0262145000000000 0.2428780000000000
0.5206740000000000 0.1767690000000000 0.0308542000000000
0.5178270000000000 0.1634880000000000 0.2909780000000000
0.7942580000000000 0.2971800000000000 0.4656020000000000
0.7966210000000000 0.0807658000000000 0.1530890000000000
0.7723690000000000 0.1231970000000000 0.4289660000000000
0.9005200000000000 0.2056530000000000 0.3348830000000000
0.8059180000000000 0.0381474000000000 0.2704330000000000
0.9964110000000000 0.0682317000000000 0.1753400000000000
0.8958159999999999 0.1075790000000000 0.0165248000000000
0.9866210000000000 0.2213940000000000 0.4828680000000000
0.9566930000000000 0.0800287000000000 0.4989820000000000
0.9819470000000000 0.0754440000000000 0.3404460000000000
0.5687070000000000 0.4637720000000000 0.0756074000000000
0.5782290000000000 0.3271830000000000 0.3176270000000000
0.7443419999999999 0.3788770000000000 0.2170300000000000
0.7260690000000000 0.4326240000000000 0.0437123000000000
0.5793800000000000 0.4387080000000000 0.2219470000000000
0.6089440000000000 0.3238840000000000 0.1028230000000000
0.6861220000000000 0.4395240000000000 0.4766910000000000
0.9907920000000000 0.3428530000000000 0.4071890000000000
0.7839760000000000 0.2830890000000000 0.0575574000000000
0.8881900000000000 0.4762860000000000 0.2713900000000000
0.7975090000000000 0.3448030000000000 0.3278970000000000
0.8507900000000000 0.2464770000000000 0.1862480000000000
0.8724130000000000 0.4612390000000000 0.4537130000000000
0.9432380000000000 0.3630540000000000 0.1225060000000000
0.5593399999999999 0.1577070000000000 0.8802020000000000
0.5693920000000000 0.1087840000000000 0.6791300000000000
0.6830250000000000 0.2814030000000000 0.9394210000000000
0.5467000000000000 0.0238377000000000 0.9494050000000001
0.6905340000000000 0.1369720000000000 0.9873640000000000
0.5917860000000000 0.1173530000000000 0.5093529999999999
0.7305070000000000 0.0182200000000000 0.6858730000000000
0.7660870000000000 0.1075600000000000 0.5639110000000001
0.9223670000000000 0.0334964000000000 0.6301890000000000
0.7264800000000000 0.1415080000000000 0.8194450000000000
0.8640910000000001 0.2042550000000000 0.9038180000000000
0.9766020000000000 0.1843670000000000 0.6543440000000000
0.5247210000000000 0.3027240000000000 0.8268090000000000
0.7000110000000000 0.2587840000000000 0.7422170000000000
0.7013750000000000 0.2401740000000000 0.5795540000000000
0.7772660000000000 0.4126390000000000 0.6006800000000000
0.5134860000000000 0.2410080000000000 0.6408300000000000
0.6155160000000000 0.4366890000000000 0.9093260000000000
0.5926380000000000 0.3693800000000000 0.5762760000000000
0.6365800000000000 0.3967780000000000 0.7393810000000000
0.5167450000000000 0.4846080000000000 0.5637610000000000
0.8785200000000000 0.2911800000000000 0.7907310000000000
0.9640420000000000 0.4148790000000000 0.5739069999999999
0.8790270000000000 0.2608910000000000 0.5962180000000000
0.8807060000000000 0.3731990000000000 0.9609120000000000
0.5624230000000000 0.5990390000000000 0.3449940000000000
0.5725800000000000 0.7546840000000000 0.4587840000000000
0.7360280000000000 0.6185460000000000 0.0919540000000000
0.5980760000000001 0.6006250000000000 0.0091665900000000
0.5733680000000000 0.6112520000000000 0.1893790000000000
0.7545500000000001 0.6999760000000000 0.2533360000000000
0.7347320000000001 0.6661500000000000 0.3985160000000000
0.7363030000000000 0.5408390000000000 0.2049860000000000
0.9047980000000000 0.6423660000000000 0.2997290000000000
0.9758860000000000 0.6418710000000000 0.0261232000000000
0.9399130000000000 0.6187970000000000 0.4318680000000000
0.8817510000000000 0.7669810000000000 0.4616480000000000
0.8917300000000000 0.5064950000000000 0.1164900000000000
0.7330420000000000 0.5031740000000000 0.3538380000000000
0.5452530000000000 0.7775790000000000 0.3325180000000000
0.6293370000000000 0.9514880000000000 0.3843330000000000
0.5234570000000000 0.8631320000000000 0.1273010000000000
0.5094190000000000 0.8959950000000000 0.2679120000000000
0.6236590000000000 0.7625320000000000 0.1448750000000000
0.7147829999999999 0.8333130000000000 0.4206840000000000
0.7574800000000000 0.8742410000000000 0.2612110000000000
0.7348850000000000 0.9111170000000000 0.1276060000000000
0.9932480000000000 0.9226490000000001 0.4662410000000000
0.9279420000000000 0.9156620000000000 0.2116310000000000
0.8264780000000000 0.7746520000000000 0.1116270000000000
0.9001560000000000 0.9709800000000000 0.0562351000000000
0.8975010000000000 0.8263080000000000 0.3317790000000000
0.8324850000000000 0.9773750000000000 0.4173720000000000
0.9811970000000000 0.8020470000000000 0.0202172000000000
0.9964390000000000 0.7608750000000000 0.1899550000000000
0.6591830000000000 0.5758520000000000 0.8432260000000000
0.6182240000000000 0.7174330000000000 0.8095030000000000
0.6682920000000000 0.5361530000000000 0.6572290000000000
0.5185750000000000 0.6873300000000000 0.6480420000000000
0.6087920000000000 0.7652190000000000 0.9783330000000000
0.7189070000000000 0.6972429999999999 0.6770240000000000
0.5005420000000000 0.5816150000000000 0.7444440000000000
0.6078960000000000 0.6173660000000000 0.5059030000000000
0.8284000000000000 0.6747740000000000 0.7714380000000000
0.8652440000000000 0.5673830000000000 0.6092630000000000
0.9483490000000000 0.6022980000000000 0.8720950000000000
0.7740120000000000 0.5993010000000000 0.5070290000000000
0.7864200000000000 0.5188000000000000 0.7553000000000000
0.7740170000000000 0.6878970000000000 0.9369080000000000
0.7842270000000000 0.5253500000000000 0.9430180000000000
0.9701500000000000 0.5048800000000000 0.7233760000000000
0.7157110000000000 0.9888300000000000 0.8379750000000000
0.6044890000000001 0.8828260000000000 0.6168790000000000
0.5556910000000000 0.8767060000000000 0.8862310000000000
0.5544180000000000 0.9920610000000000 0.7737470000000000
0.6920600000000000 0.7561050000000000 0.5570580000000001
0.6712740000000000 0.8439320000000000 0.7476159999999999
0.6392210000000000 0.9852379999999999 0.5472470000000000
0.9115080000000000 0.8216820000000000 0.7530870000000000
0.9370970000000000 0.7988000000000000 0.8803670000000000
0.8849830000000000 0.9978180000000000 0.7680460000000000
0.8075480000000000 0.9370350000000000 0.5304260000000000
0.9388400000000000 0.9607090000000000 0.9014070000000000
0.9196780000000000 0.7190530000000001 0.6087590000000001
0.8104530000000000 0.8684300000000000 0.6473810000000000
0.7555580000000000 0.8345650000000000 0.8752840000000000
0.7486980000000000 0.9685260000000000 0.9953149999999999
0.9913370000000000 0.9009370000000000 0.6392490000000000
