fcc_Al4_Cu8_Nb4_Ni0_Ta4_W8_Zr4          
   1.00000000000000     
     8.8208064232727637    0.0000000000000000    0.0000000000000000
     0.0000000000000000    8.9357874356411457    0.0000000000000000
     0.0000000000000000    0.0000000000000000    6.7038086563569710
   Al   Cu   Nb   Ta   W    Zr
     4     8     4     4     8     4
Direct
  0.5064669824902391  0.5097383824524842 -0.0256941399804115
  0.7435330175097609  0.7402616175475160 -0.0256941399804115
  0.5064669824902391  0.7402616175475160  0.2756941399804118
  0.7435330175097609  0.5097383824524842  0.2756941399804118
  0.0164071841855555  0.0187455927583196 -0.0159025204770367
  0.2335928158144444  0.2312544072416804 -0.0159025204770367
  0.0164071841855555  0.2312544072416804  0.2659025204770366
  0.2335928158144444  0.0187455927583196  0.2659025204770366
  0.0053518531856624  0.0075947831503731  0.5154038571333559
  0.2446481468143376  0.2424052168496270  0.5154038571333559
  0.0053518531856624  0.2424052168496270  0.7345961428666441
  0.2446481468143376  0.0075947831503731  0.7345961428666441
  0.4987149366560081 -0.0036537374248361  0.0054936772776759
  0.7512850633439915  0.2536537374248361  0.0054936772776759
  0.4987149366560081  0.2536537374248361  0.2445063227223241
  0.7512850633439915 -0.0036537374248361  0.2445063227223241
  0.4921141481135555  0.0059427031670703  0.4903458435917821
  0.7578858518864442  0.2440572968329297  0.4903458435917821
  0.4921141481135555  0.2440572968329297  0.7596541564082175
  0.7578858518864442  0.0059427031670703  0.7596541564082175
  0.4958197697316317  0.4940710491388214  0.5251979255685451
  0.7541802302683680  0.7559289508611787  0.5251979255685451
  0.4958197697316317  0.7559289508611787  0.7248020744314549
  0.7541802302683680  0.4940710491388214  0.7248020744314549
  0.0026369429570224  0.4935723789337735  0.5091784061425148
  0.2473630570429776  0.7564276210662263  0.5091784061425148
  0.0026369429570224  0.7564276210662263  0.7408215938574852
  0.2473630570429776  0.4935723789337735  0.7408215938574852
 -0.0040593959437677  0.4864055891837044 -0.0046071591288245
  0.2540593959437677  0.7635944108162954 -0.0046071591288245
 -0.0040593959437677  0.7635944108162954  0.2546071591288244
  0.2540593959437677  0.4864055891837044  0.2546071591288244
 
  0.00000000E+00  0.00000000E+00  0.00000000E+00
  0.00000000E+00  0.00000000E+00  0.00000000E+00
  0.00000000E+00  0.00000000E+00  0.00000000E+00
  0.00000000E+00  0.00000000E+00  0.00000000E+00
  0.00000000E+00  0.00000000E+00  0.00000000E+00
  0.00000000E+00  0.00000000E+00  0.00000000E+00
  0.00000000E+00  0.00000000E+00  0.00000000E+00
  0.00000000E+00  0.00000000E+00  0.00000000E+00
  0.00000000E+00  0.00000000E+00  0.00000000E+00
  0.00000000E+00  0.00000000E+00  0.00000000E+00
  0.00000000E+00  0.00000000E+00  0.00000000E+00
  0.00000000E+00  0.00000000E+00  0.00000000E+00
  0.00000000E+00  0.00000000E+00  0.00000000E+00
  0.00000000E+00  0.00000000E+00  0.00000000E+00
  0.00000000E+00  0.00000000E+00  0.00000000E+00
  0.00000000E+00  0.00000000E+00  0.00000000E+00
  0.00000000E+00  0.00000000E+00  0.00000000E+00
  0.00000000E+00  0.00000000E+00  0.00000000E+00
  0.00000000E+00  0.00000000E+00  0.00000000E+00
  0.00000000E+00  0.00000000E+00  0.00000000E+00
  0.00000000E+00  0.00000000E+00  0.00000000E+00
  0.00000000E+00  0.00000000E+00  0.00000000E+00
  0.00000000E+00  0.00000000E+00  0.00000000E+00
  0.00000000E+00  0.00000000E+00  0.00000000E+00
  0.00000000E+00  0.00000000E+00  0.00000000E+00
  0.00000000E+00  0.00000000E+00  0.00000000E+00
  0.00000000E+00  0.00000000E+00  0.00000000E+00
  0.00000000E+00  0.00000000E+00  0.00000000E+00
  0.00000000E+00  0.00000000E+00  0.00000000E+00
  0.00000000E+00  0.00000000E+00  0.00000000E+00
  0.00000000E+00  0.00000000E+00  0.00000000E+00
  0.00000000E+00  0.00000000E+00  0.00000000E+00
