Ni12 Cu3 Nb9 
1.0
1.0291471435133191e+01 0.0000000000000000e+00 0.0000000000000000e+00 
0.0000000000000000e+00 5.5372347414269036e+00 0.0000000000000000e+00 
0.0000000000000000e+00 0.0000000000000000e+00 5.8027168237599698e+00 
Ni Cu Nb 
12 3 9 
Cartesian
   3.4304870479    0.0000000431    5.6027145830
   3.4304870479    5.5372347414    3.0483876508
   1.7152486697    1.3449167974    4.3207029470
   1.7152486697    4.1923179440    4.3207029470
   5.1457357176    1.3449167974    4.3207029470
   0.0000000161    0.0000000440    5.6027145830
  10.2914714351    0.0000000110    3.0483876508
   5.1457357176    4.1923179440    4.3207029470
   6.8609843872    0.0000000340    5.6027145830
   6.8609843872    0.0000000041    3.0483876508
   8.5762227655    1.3449167974    4.3207029470
   8.5762227655    4.1923179440    4.3207029470
   3.4304870479    2.7686173707    3.0134843091
  10.2914714351    2.7686173707    3.0134843091
   6.8609843872    2.7686173707    3.0134843091
   3.4304870479    2.7686173707    5.6185037755
   1.7152486697    4.2185976601    1.5445439533
   1.7152486697    1.3186370813    1.5445439533
  10.2914714351    2.7686173707    5.6185037755
   6.8609843872    2.7686173707    5.6185037755
   5.1457357176    4.2185976601    1.5445439533
   8.5762227655    4.2185976601    1.5445439533
   5.1457357176    1.3186370813    1.5445439533
   8.5762227655    1.3186370813    1.5445439533
