Ta30                                    
   1.00000000000000     
    10.2471965104979024    0.0000113328140086    0.0000003046298261
     0.0000113268389442   10.2471977880479610   -0.0000008869398537
     0.0000001617417739    0.0000000595091776    5.3375350973943778
   Ta
    30
Direct
  0.9652703591672090  0.3713096386223398  0.0000001100004207
  0.2609784870193280  0.9325972288078628  0.5000000500000603
  0.3187035970338472  0.6812932772713770  0.7493271085687297
  0.1286944147544748  0.4652727602683939  0.4999999100007540
  0.8713079284650151  0.5347256142084578  0.4999998299992602
  0.8949994490434345  0.1050053265099799  0.9999998600000113
  0.8187106081647535  0.8187030928444219  0.7506706729092675
  0.1812899535570340  0.1812927657463541  0.2493294278698618
  0.7390180981322835  0.0674035405079080  0.5000000899999431
  0.9325987441785331  0.2609793692538975  0.4999999599998780
  0.3949994372180248  0.3950021608718103  0.5000000300000131
  0.4999977356981488  0.5000009787381994  0.0000000199999958
  0.5347252310007240  0.8713043130827302  0.5000000500008145
  0.5674071225760885  0.7609800662945383  0.9999999299997001
  0.0347276399382126  0.6286922222208494  0.0000000399995944
  0.6050005357000278  0.6049967567809263  0.5000000399999857
  0.3187036370338605  0.6812932972713589  0.2506729614310118
  0.6812972713641492  0.3187117138261714  0.2506736948169501
 -0.0000020211219580 -0.0000015159864486  0.4999999799999879
  0.8187105281647320  0.8187026628444408  0.2493296170907254
  0.6812972513641381  0.3187117738261884  0.7493262551833306
  0.4325949469948035  0.2390202951166581  0.9999998800002936
  0.1812899535570500  0.1812927157463370  0.7506705821301149
  0.7609785954044987  0.5674066235366143  0.9999998100002438
  0.3713085709852955  0.9652722177305747  0.0000000899997609
  0.0674033028801663  0.7390184915086053  0.5000000200001258
  0.6286955413177221  0.0347278191234706  0.9999999400002503
  0.4652726182564619  0.1286948949325093  0.5000000299991867
  0.2390178482313358  0.4325938263127387  0.0000000599997485
  0.1050026139206266  0.8949960821807422  0.9999999399999862
 
  0.00000000E+00  0.00000000E+00  0.00000000E+00
  0.00000000E+00  0.00000000E+00  0.00000000E+00
  0.00000000E+00  0.00000000E+00  0.00000000E+00
  0.00000000E+00  0.00000000E+00  0.00000000E+00
  0.00000000E+00  0.00000000E+00  0.00000000E+00
  0.00000000E+00  0.00000000E+00  0.00000000E+00
  0.00000000E+00  0.00000000E+00  0.00000000E+00
  0.00000000E+00  0.00000000E+00  0.00000000E+00
  0.00000000E+00  0.00000000E+00  0.00000000E+00
  0.00000000E+00  0.00000000E+00  0.00000000E+00
  0.00000000E+00  0.00000000E+00  0.00000000E+00
  0.00000000E+00  0.00000000E+00  0.00000000E+00
  0.00000000E+00  0.00000000E+00  0.00000000E+00
  0.00000000E+00  0.00000000E+00  0.00000000E+00
  0.00000000E+00  0.00000000E+00  0.00000000E+00
  0.00000000E+00  0.00000000E+00  0.00000000E+00
  0.00000000E+00  0.00000000E+00  0.00000000E+00
  0.00000000E+00  0.00000000E+00  0.00000000E+00
  0.00000000E+00  0.00000000E+00  0.00000000E+00
  0.00000000E+00  0.00000000E+00  0.00000000E+00
  0.00000000E+00  0.00000000E+00  0.00000000E+00
  0.00000000E+00  0.00000000E+00  0.00000000E+00
  0.00000000E+00  0.00000000E+00  0.00000000E+00
  0.00000000E+00  0.00000000E+00  0.00000000E+00
  0.00000000E+00  0.00000000E+00  0.00000000E+00
  0.00000000E+00  0.00000000E+00  0.00000000E+00
  0.00000000E+00  0.00000000E+00  0.00000000E+00
  0.00000000E+00  0.00000000E+00  0.00000000E+00
  0.00000000E+00  0.00000000E+00  0.00000000E+00
  0.00000000E+00  0.00000000E+00  0.00000000E+00
