Ni4 Zr2 
1.0
4.9368825354564754e+00 0.0000000000000000e+00 0.0000000000000000e+00 
2.4684357547171416e+00 4.2754562851591542e+00 0.0000000000000000e+00 
2.4684358708570908e+00 1.4251514041615274e+00 4.0309392147659846e+00 
Ni Zr 
4 2 
Cartesian
   4.9368203065    2.8502482637    2.0154212361
   3.7033206872    2.1378735081    0.0000000001
   7.4052763847    2.8503508747    2.0154937930
   6.1703988574    4.9880148854    2.0154937930
   8.6394410902    4.9880060754    3.5270718129
   1.2341254694    0.7125503084    0.5038674018
