Al8 Ta22 
1.0
5.2295345465754224e+00 0.0000000000000000e+00 0.0000000000000000e+00 
-1.2360076396112828e-08 1.0014676512286702e+01 0.0000000000000000e+00 
-1.3149940197682913e-07 2.7223319739392866e-03 1.0016307254525389e+01 
Al Ta 
8 22 
Cartesian
   2.6147672367    4.3443728763    2.3810465116
   0.0000000096    7.3994443571    0.6649746256
   5.2295345007    9.3624010302    2.6177218357
   0.0000000162   10.0146765123    0.0000001115
   2.6147672014    5.0086994221    5.0081536273
  -0.0000001223    2.6179544877    9.3513346322
  -0.0000000904    0.6549928067    7.3985854188
   2.6147671660    5.6730259679    7.6352607429
   3.9093646723    1.8195716794    1.7874400785
   1.3201698229    1.8195716794    1.7874400785
  -0.0000000320    3.9765303489    3.9527453482
   0.0000000069    4.6446812042    1.2690961781
  -0.0000000452    1.3064960629    4.6478670553
   2.6147672134    2.4144246731    4.3344467850
   1.3034091403    6.8202157076    3.1713531866
   3.9261253061    6.8202157076    3.1713531866
   2.6147672488    8.9701533957    1.0229955088
   2.6147672127    9.6547956301    3.7087481034
   2.6147672607    6.2891667305    0.3683026226
   1.3034090966    3.1971831367    6.8449540679
   3.9261252624    3.1971831367    6.8449540679
   2.6147671539    1.0472454485    8.9933117457
   2.6147671900    0.3626002098    6.3075591511
   2.6147671420    3.7282321145    9.6480076368
   3.9093645798    8.1978271649    8.2288671760
   1.3201697305    8.1978271649    8.2288671760
  -0.0000000639    6.0408684953    6.0635619064
   5.2295344251    5.3727076254    8.7472110765
   5.2295344653    8.7109027814    5.3684401992
   2.6147671893    7.6029741712    5.6818604695
