Ni1 
1.0
2.4848517900487468e+00 0.0000000000000000e+00 0.0000000000000000e+00 
1.2424255140686311e+00 2.1519446745692696e+00 0.0000000000000000e+00 
1.2424256629155381e+00 7.1731486284574031e-01 2.0288729804607382e+00 
Ni 
1 
Cartesian
   0.0002477600    0.0000721074    0.0000000002
