Ta10 Al6                                
   1.00000000000000     
     7.8140833467675623    0.0000000000000000    0.0000000000000000
    -3.9070416733837812    6.7671944986153933   -0.0000000000000000
     0.0000000000000000   -0.0000000000000000    5.2384948598019534
   Ta   Al
    10     6
Direct
  0.6666669999999968  0.3333330000000032  0.5000000000000000
  0.3333330000000032  0.6666669999999968  0.5000000000000000
  0.3333330000000032  0.6666669999999968 -0.0000000000000000
  0.6666669999999968  0.3333330000000032 -0.0000000000000000
  0.7673600342941034  0.7673600342941598  0.2500000000000000
  0.2326399657059528 -0.0000000000000000  0.2500000000000000
 -0.0000000000000563  0.2326399657058401  0.2500000000000000
  0.2326399657058965  0.2326399657058401  0.7500000000000000
  0.7673600342940472 -0.0000000000000000  0.7500000000000000
  0.0000000000000563  0.7673600342941598  0.7500000000000000
  0.4028520725563006  0.4028520725563396  0.2500000000000000
  0.5971479274437383 -0.0000000000000000  0.2500000000000000
 -0.0000000000000389  0.5971479274436604  0.2500000000000000
  0.5971479274436994  0.5971479274436604  0.7500000000000000
  0.4028520725562618 -0.0000000000000000  0.7500000000000000
  0.0000000000000389  0.4028520725563396  0.7500000000000000
 
  0.00000000E+00  0.00000000E+00  0.00000000E+00
  0.00000000E+00  0.00000000E+00  0.00000000E+00
  0.00000000E+00  0.00000000E+00  0.00000000E+00
  0.00000000E+00  0.00000000E+00  0.00000000E+00
  0.00000000E+00  0.00000000E+00  0.00000000E+00
  0.00000000E+00  0.00000000E+00  0.00000000E+00
  0.00000000E+00  0.00000000E+00  0.00000000E+00
  0.00000000E+00  0.00000000E+00  0.00000000E+00
  0.00000000E+00  0.00000000E+00  0.00000000E+00
  0.00000000E+00  0.00000000E+00  0.00000000E+00
  0.00000000E+00  0.00000000E+00  0.00000000E+00
  0.00000000E+00  0.00000000E+00  0.00000000E+00
  0.00000000E+00  0.00000000E+00  0.00000000E+00
  0.00000000E+00  0.00000000E+00  0.00000000E+00
  0.00000000E+00  0.00000000E+00  0.00000000E+00
  0.00000000E+00  0.00000000E+00  0.00000000E+00
