Zr3 Nb1 Al12                            
   1.00000000000000     
     3.9874967343321144    0.0000000000000000   -0.0000000000000000
    -0.0000000000000000    3.9874967343321144    0.0000000000000000
    -0.0000000000000000   -0.0000000000000000   17.1803288164498831
   Zr   Nb   Al
     3     1    12
Direct
  0.0000000000000000 -0.0000000000000000  0.8812512332372352
 -0.0000000000000000  0.0000000000000000  0.1228970905190014
  0.5000000000000000  0.5000000000000000  0.6169282528690950
  0.5000000000000000  0.5000000000000000  0.3811447404620549
  0.5000000000000000  0.0000000000000000  0.0014256111716372
  0.0000000000000000  0.5000000000000000  0.4967394061492764
  0.0000000000000000  0.5000000000000000  0.0014256111716372
  0.5000000000000000 -0.0000000000000000  0.4967394061492764
  0.5000000000000000  0.5000000000000000  0.1256080945155528
 -0.0000000000000000 -0.0000000000000000  0.6222882718197562
  0.0000000000000000  0.0000000000000000  0.3741389036698181
  0.5000000000000000  0.5000000000000000  0.8747605497303474
 -0.0000000000000000  0.5000000000000000  0.2536223007612661
  0.5000000000000000 -0.0000000000000000  0.7487046135063922
  0.5000000000000000  0.0000000000000000  0.2536223007612661
 -0.0000000000000000  0.5000000000000000  0.7487046135063922
 
  0.00000000E+00  0.00000000E+00  0.00000000E+00
  0.00000000E+00  0.00000000E+00  0.00000000E+00
  0.00000000E+00  0.00000000E+00  0.00000000E+00
  0.00000000E+00  0.00000000E+00  0.00000000E+00
  0.00000000E+00  0.00000000E+00  0.00000000E+00
  0.00000000E+00  0.00000000E+00  0.00000000E+00
  0.00000000E+00  0.00000000E+00  0.00000000E+00
  0.00000000E+00  0.00000000E+00  0.00000000E+00
  0.00000000E+00  0.00000000E+00  0.00000000E+00
  0.00000000E+00  0.00000000E+00  0.00000000E+00
  0.00000000E+00  0.00000000E+00  0.00000000E+00
  0.00000000E+00  0.00000000E+00  0.00000000E+00
  0.00000000E+00  0.00000000E+00  0.00000000E+00
  0.00000000E+00  0.00000000E+00  0.00000000E+00
  0.00000000E+00  0.00000000E+00  0.00000000E+00
  0.00000000E+00  0.00000000E+00  0.00000000E+00
