bcc_Al0_Cu0_Nb0_Ni3_Ta3_W15_Zr3         
   1.00000000000000     
     9.6683348021539217    0.0000000000000000    0.0000000000000000
     0.0000000000000000    6.4296398411106868    0.0541904099865128
     0.0000000000000000    0.0544501378685727    6.3678333198927746
   Ni   Ta   W    Zr
     3     3    15     3
Direct
 -0.0000000000000000  0.5157512901487853  0.4915274672676708
  0.3333333333333357  0.5157512901487853  0.4915274672676708
  0.6666666666666643  0.5157512901487853  0.4915274672676708
 -0.0000000000000000  0.5045012566536666  0.0154934230292465
  0.3333333333333357  0.5045012566536666  0.0154934230292465
  0.6666666666666643  0.5045012566536666  0.0154934230292464
  0.1666666666666643  0.7514453448435698  0.7540937528188982
  0.5000000000000000  0.7514453448435698  0.7540937528188982
  0.8333333333333357  0.7514453448435698  0.7540937528188982
  0.1666666666666643  0.2417470413170570  0.2539127909633597
  0.5000000000000000  0.2417470413170570  0.2539127909633597
  0.8333333333333357  0.2417470413170570  0.2539127909633597
  0.1666666666666643  0.7532053847966421  0.2525956947606587
  0.5000000000000000  0.7532053847966421  0.2525956947606587
  0.8333333333333357  0.7532053847966421  0.2525956947606587
 -0.0000000000000000 -0.0041472899233365  0.0031415309253313
  0.3333333333333357 -0.0041472899233365  0.0031415309253313
  0.6666666666666643 -0.0041472899233365  0.0031415309253313
 -0.0000000000000000 -0.0190066240138058  0.4938295352565228
  0.3333333333333357 -0.0190066240138058  0.4938295352565228
  0.6666666666666643 -0.0190066240138058  0.4938295352565228
  0.1666666666666643  0.2565035961774212  0.7354058049783123
  0.5000000000000000  0.2565035961774212  0.7354058049783123
  0.8333333333333357  0.2565035961774212  0.7354058049783123
 
  0.00000000E+00  0.00000000E+00  0.00000000E+00
  0.00000000E+00  0.00000000E+00  0.00000000E+00
  0.00000000E+00  0.00000000E+00  0.00000000E+00
  0.00000000E+00  0.00000000E+00  0.00000000E+00
  0.00000000E+00  0.00000000E+00  0.00000000E+00
  0.00000000E+00  0.00000000E+00  0.00000000E+00
  0.00000000E+00  0.00000000E+00  0.00000000E+00
  0.00000000E+00  0.00000000E+00  0.00000000E+00
  0.00000000E+00  0.00000000E+00  0.00000000E+00
  0.00000000E+00  0.00000000E+00  0.00000000E+00
  0.00000000E+00  0.00000000E+00  0.00000000E+00
  0.00000000E+00  0.00000000E+00  0.00000000E+00
  0.00000000E+00  0.00000000E+00  0.00000000E+00
  0.00000000E+00  0.00000000E+00  0.00000000E+00
  0.00000000E+00  0.00000000E+00  0.00000000E+00
  0.00000000E+00  0.00000000E+00  0.00000000E+00
  0.00000000E+00  0.00000000E+00  0.00000000E+00
  0.00000000E+00  0.00000000E+00  0.00000000E+00
  0.00000000E+00  0.00000000E+00  0.00000000E+00
  0.00000000E+00  0.00000000E+00  0.00000000E+00
  0.00000000E+00  0.00000000E+00  0.00000000E+00
  0.00000000E+00  0.00000000E+00  0.00000000E+00
  0.00000000E+00  0.00000000E+00  0.00000000E+00
  0.00000000E+00  0.00000000E+00  0.00000000E+00
