Al16 Cu4 Nb4 W8 
1.0
6.9014351648998842e+00 0.0000000000000000e+00 0.0000000000000000e+00 
7.4689619364938782e-08 8.4707805389318338e+00 0.0000000000000000e+00 
1.6704592586394992e-08 -1.2706858474959516e-07 8.4624368045873322e+00 
Al Cu Nb W 
16 4 4 8 
Cartesian
   4.9833814299    2.1990230369    4.1130489348
   0.0850008803    4.0768849608    4.2095545641
   6.8689708363    2.0528512770    2.1755232537
   1.7578231471    0.0648409123    2.1755232537
   3.6434126358    8.3894525132    4.1130489348
   3.3007218372    4.3420627453    4.2304821703
   1.6403607815    6.5115905864    4.2095545641
   5.3260722290    6.2464128013    4.2304821703
   6.8689708310    0.0648409035    8.4025227520
   1.7578231769    2.0528511835    8.4025227520
   3.6434125858    2.1990230016    6.4649970710
   1.6403607643    4.0768849284    6.3684914417
   4.9833814892    8.3894524779    6.4649970710
   5.3260722164    4.3420627135    6.3475638354
   0.0850009061    6.5115905540    6.3684914417
   3.3007218582    6.2464127696    6.3475638354
   3.3947883737    2.0264732691    2.0010955063
   5.2320056090    0.0912226527    2.0010955063
   3.3947883529    0.0912226810    0.1145145411
   5.2320056223    2.0264732974    0.1145145411
   5.1738196457    4.2017951216    2.1465732574
   3.4529744123    6.3866804876    2.1465732574
   3.4529744054    4.2017950272    8.4314727483
   5.1738196773    6.3866803932    8.4314727483
   0.0310224709    4.1548839706    0.0422757109
   1.6943368809    4.1548839401    2.0733308669
   1.6943368970    6.4335917018    0.0422757109
   0.0310224950    6.4335916713    2.0733308669
   6.7649454912    0.1279282044    4.2948559271
   1.8618485005    1.9897693425    4.2948559271
   6.7649455116    1.9897693127    6.2831900787
   1.8618484880    0.1279281746    6.2831900787
