Zr3 Ta1
1.0
   4.4463156300000000    0.0000000000000000    0.0000000000000000
   0.0000000000000000    4.4463156300000000    0.0000000000000000
  -0.0000000000000000   -0.0000000000000000    4.4463156300000000
Zr Ta
3 1
direct
   0.0000000000000000    0.5000000000000000    0.5000000000000000 Zr
   0.5000000000000000   -0.0000000000000000    0.5000000000000000 Zr
   0.5000000000000000    0.5000000000000000   -0.0000000000000000 Zr
   0.0000000000000000    0.0000000000000000    0.0000000000000000 Ta
