Nb7 
1.0
2.8792557320222780e+00 0.0000000000000000e+00 0.0000000000000000e+00 
1.1668892056479511e-06 4.7018271782809880e+00 0.0000000000000000e+00 
9.5981147918841736e-01 2.3509102898996503e+00 9.5010358450401924e+00 
Nb 
7 
Cartesian
   2.3994111867    2.3508999493    5.4291674119
   1.4396485537    4.7018093079    4.0718684331
   3.3591711474    4.7018154180    6.7864568896
   0.4798880170    2.3508985410    2.7145789554
   1.4396770886    2.3509008874    8.1437463673
   2.3993855310    4.7018149524    1.3572894777
   2.3997019409    4.7018097736    9.5010358450
