Nb20 Al10                               
   1.00000000000000     
     5.1791038079345375    0.0000000000000000    0.0000000000000000
     0.0000000000000000    9.9786851329847543   -0.0000005012984705
     0.0000000000000000   -0.0000005012984705    9.9786851329847543
   Nb   Al
    20    10
Direct
  0.0000000000000000  0.3961481096573711  0.3961481096573711
  0.5000000000000000  0.1038531308752666  0.8961468691247334
  0.5000000000000000  0.8961468691247334  0.1038531308752666
  0.0000000000000000  0.6038518903426290  0.6038518903426290
  0.0000000000000000  0.4648412082453380  0.1275900683791093
  0.5000000000000000  0.3724103133313701  0.9648405340361726
  0.5000000000000000  0.6275896866686299  0.0351594659638272
  0.0000000000000000  0.5351587917546620  0.8724099316208905
  0.5000000000000000  0.9648405340361726  0.3724103133313701
  0.5000000000000000  0.0351594659638272  0.6275896866686299
  0.0000000000000000  0.1275900683791093  0.4648412082453380
  0.0000000000000000  0.8724099316208905  0.5351587917546620
  0.2526308440339208  0.1814862255096936  0.1814862255096936
  0.7526307376538627  0.3185153184987670  0.6814846815012331
  0.7526307376538627  0.6814846815012331  0.3185153184987670
  0.2526308440339208  0.8185137744903064  0.8185137744903064
  0.2473692623461372  0.6814846815012331  0.3185153184987670
  0.2473692623461372  0.3185153184987670  0.6814846815012331
  0.7473691559660792  0.1814862255096936  0.1814862255096936
  0.7473691559660792  0.8185137744903064  0.8185137744903064
  0.0000000000000000  0.0000000000000000  0.0000000000000000
  0.5000000000000000  0.5000000000000000  0.5000000000000000
  0.0000000000000000  0.9330975979336832  0.2615239222110962
  0.5000000000000000  0.2384764897675250  0.4330974792201974
  0.5000000000000000  0.7615235102324750  0.5669025207798027
  0.0000000000000000  0.0669024020663167  0.7384760777889038
  0.5000000000000000  0.4330974792201974  0.2384764897675250
  0.5000000000000000  0.5669025207798027  0.7615235102324750
  0.0000000000000000  0.2615239222110962  0.9330975979336832
  0.0000000000000000  0.7384760777889038  0.0669024020663167
 
  0.00000000E+00  0.00000000E+00  0.00000000E+00
  0.00000000E+00  0.00000000E+00  0.00000000E+00
  0.00000000E+00  0.00000000E+00  0.00000000E+00
  0.00000000E+00  0.00000000E+00  0.00000000E+00
  0.00000000E+00  0.00000000E+00  0.00000000E+00
  0.00000000E+00  0.00000000E+00  0.00000000E+00
  0.00000000E+00  0.00000000E+00  0.00000000E+00
  0.00000000E+00  0.00000000E+00  0.00000000E+00
  0.00000000E+00  0.00000000E+00  0.00000000E+00
  0.00000000E+00  0.00000000E+00  0.00000000E+00
  0.00000000E+00  0.00000000E+00  0.00000000E+00
  0.00000000E+00  0.00000000E+00  0.00000000E+00
  0.00000000E+00  0.00000000E+00  0.00000000E+00
  0.00000000E+00  0.00000000E+00  0.00000000E+00
  0.00000000E+00  0.00000000E+00  0.00000000E+00
  0.00000000E+00  0.00000000E+00  0.00000000E+00
  0.00000000E+00  0.00000000E+00  0.00000000E+00
  0.00000000E+00  0.00000000E+00  0.00000000E+00
  0.00000000E+00  0.00000000E+00  0.00000000E+00
  0.00000000E+00  0.00000000E+00  0.00000000E+00
  0.00000000E+00  0.00000000E+00  0.00000000E+00
  0.00000000E+00  0.00000000E+00  0.00000000E+00
  0.00000000E+00  0.00000000E+00  0.00000000E+00
  0.00000000E+00  0.00000000E+00  0.00000000E+00
  0.00000000E+00  0.00000000E+00  0.00000000E+00
  0.00000000E+00  0.00000000E+00  0.00000000E+00
  0.00000000E+00  0.00000000E+00  0.00000000E+00
  0.00000000E+00  0.00000000E+00  0.00000000E+00
  0.00000000E+00  0.00000000E+00  0.00000000E+00
  0.00000000E+00  0.00000000E+00  0.00000000E+00
