Ni3 Nb3 Ta15 W3 
1.0
9.7085071913869303e+00 0.0000000000000000e+00 0.0000000000000000e+00 
3.0049719650858423e-08 4.5964213702542445e+00 0.0000000000000000e+00 
-4.4578566869357896e-08 8.2734040502696980e-03 9.1442373453411925e+00 
Ni Nb Ta W 
3 3 15 3 
Cartesian
   1.6180877634    2.6791040066    4.5435703637
   0.0437713713    2.6946277793    6.8670662077
   3.1923998613    2.6946277793    6.8670662077
   6.4723413441    0.3848072212    4.5375260228
   4.8280017613    0.3917086194    6.8671759386
   8.1166809043    0.3917086194    6.8671759386
   3.2658544488    2.6814206127    2.3336825244
   1.6180877596    0.3830270465    2.2544934290
   0.0000766258    0.3847062996    0.0122807108
   3.2360881620    0.3847062996    0.0122807108
   0.0518494279    0.3815339732    4.5551561124
   3.1843223795    0.3815339732    4.5551561124
   9.6788282910    2.6814206127    2.3336825244
   6.4723413701    2.6817401363    2.2956607855
   4.8149050109    2.6817919414    4.6542613567
   1.6180877414    2.6916032876    9.0718332740
   1.6180877372    0.3978216891    6.8502225225
   8.1297777063    2.6817919414    4.6542613567
   4.8634378167    2.6906211747    9.0836750614
   8.0812351488    2.6906211747    9.0836750614
   6.4723413479    2.6889541759    6.8449554418
   4.8532050683    0.3834917306    2.2697185842
   8.0914679335    0.3834917306    2.2697185842
   6.4723413660    0.3838069939    0.0465547754
