Al1 Zr3 
1.0
4.3919816314914426e+00 0.0000000000000000e+00 0.0000000000000000e+00 
2.6400698541341975e-17 4.3919816314912579e+00 0.0000000000000000e+00 
-1.2138252202916243e-18 2.6704154846412743e-17 4.3919816314911513e+00 
Al Zr 
1 3 
Cartesian
   0.0000000000    0.0000000000    0.0000000000
   0.0000000000    2.1959908157    2.1959908157
   2.1959908157    2.1959908157    0.0000000000
   2.1959908157    0.0000000000    2.1959908157
