Al4 Ni15                                
   1.00000000000000     
     3.5660128618084284    0.0000000000000000    0.0000000000000000
     0.0000000000000000    3.5660128618084284    0.0000000000000000
     0.0000000000000000    0.0000000000000000   17.2907236853021047
   Al   Ni
     4    15
Direct
 -0.0000000000000000  0.0000000000000000  0.1915274560019363
 -0.0000000000000000 -0.0000000000000000  0.3973963588381912
  0.0000000000000000  0.0000000000000000  0.6026036411618013
  0.0000000000000000 -0.0000000000000000  0.8084725439980638
  0.5000000000000000  0.5000000000000000  0.0000000000000000
  0.5000000000000000  0.5000000000000000  0.1907616652363052
  0.5000000000000000  0.5000000000000000  0.3967927294146927
  0.5000000000000000  0.5000000000000000  0.6032072705853073
  0.5000000000000000  0.5000000000000000  0.8092383347636949
  0.5000000000000000  0.0000000000000000  0.0891010260230746
  0.5000000000000000  0.0000000000000000  0.2939170110177001
  0.5000000000000000  0.0000000000000000  0.5000000000000000
  0.5000000000000000 -0.0000000000000000  0.7060829889822999
  0.5000000000000000 -0.0000000000000000  0.9108989739769254
  0.0000000000000000  0.5000000000000000  0.0891010260230746
  0.0000000000000000  0.5000000000000000  0.2939170110177001
  0.0000000000000000  0.5000000000000000  0.5000000000000000
 -0.0000000000000000  0.5000000000000000  0.7060829889822999
 -0.0000000000000000  0.5000000000000000  0.9108989739769254
 
  0.00000000E+00  0.00000000E+00  0.00000000E+00
  0.00000000E+00  0.00000000E+00  0.00000000E+00
  0.00000000E+00  0.00000000E+00  0.00000000E+00
  0.00000000E+00  0.00000000E+00  0.00000000E+00
  0.00000000E+00  0.00000000E+00  0.00000000E+00
  0.00000000E+00  0.00000000E+00  0.00000000E+00
  0.00000000E+00  0.00000000E+00  0.00000000E+00
  0.00000000E+00  0.00000000E+00  0.00000000E+00
  0.00000000E+00  0.00000000E+00  0.00000000E+00
  0.00000000E+00  0.00000000E+00  0.00000000E+00
  0.00000000E+00  0.00000000E+00  0.00000000E+00
  0.00000000E+00  0.00000000E+00  0.00000000E+00
  0.00000000E+00  0.00000000E+00  0.00000000E+00
  0.00000000E+00  0.00000000E+00  0.00000000E+00
  0.00000000E+00  0.00000000E+00  0.00000000E+00
  0.00000000E+00  0.00000000E+00  0.00000000E+00
  0.00000000E+00  0.00000000E+00  0.00000000E+00
  0.00000000E+00  0.00000000E+00  0.00000000E+00
  0.00000000E+00  0.00000000E+00  0.00000000E+00
