Nb2 Ni6                                 
   1.00000000000000     
     4.2190996099999998    0.0000000000000000    0.0000000000000000
     0.0000000000000000    4.5273332599999998    0.0000000000000000
     0.0000000000000000    0.0000000000000000    5.0826897899999999
   Nb   Ni
     2     6
Direct
  0.2500000000000000  0.3496952799999988  0.7500000000000000
  0.7500000000000000  0.6503047200000012  0.2500000000000000
  0.2500000000000000  0.3151192400000014  0.2500000000000000
  0.7500000000000000  0.6848807599999986  0.7500000000000000
  0.7500000000000000  0.1577526900000024  0.4989802600000033
  0.2500000000000000  0.8422473099999976  0.5010197399999967
  0.2500000000000000  0.8422473099999976  0.9989802600000033
  0.7500000000000000  0.1577526900000024  0.0010197399999967
 
  0.00000000E+00  0.00000000E+00  0.00000000E+00
  0.00000000E+00  0.00000000E+00  0.00000000E+00
  0.00000000E+00  0.00000000E+00  0.00000000E+00
  0.00000000E+00  0.00000000E+00  0.00000000E+00
  0.00000000E+00  0.00000000E+00  0.00000000E+00
  0.00000000E+00  0.00000000E+00  0.00000000E+00
  0.00000000E+00  0.00000000E+00  0.00000000E+00
  0.00000000E+00  0.00000000E+00  0.00000000E+00
