Cu1 Ni3
1.0
   1.3952119999999999   -1.9871539999999990    0.0000000000000000
   1.3952119999999999    1.9871539999999990    0.0000000000000000
   0.0000000000000000    0.0000000000000000    7.9348859999999997
Cu Ni
1 3
direct
   0.0000000000000000    0.0000000000000000    0.0000000000000000 Cu
   0.5000000000000000    0.5000000000000000    0.7453139999999990 Ni
   0.0000000000000000    0.0000000000000000    0.5000000000000000 Ni
   0.5000000000000000    0.5000000000000000    0.2546859999999990 Ni
