Zr1 Nb1                                 
   1.00000000000000     
     1.7065784950266560   -2.4335876023982284    0.0000000000000000
     1.7065784950266560    2.4335876023982284    0.0000000000000000
     0.0000000000000000    0.0000000000000000    4.8613638240903221
   Zr   Nb
     1     1
Direct
  0.5000000000000000  0.5000000000000000  0.5000000000000000
  0.0000000000000000  0.0000000000000000  0.0000000000000000
 
  0.00000000E+00  0.00000000E+00  0.00000000E+00
  0.00000000E+00  0.00000000E+00  0.00000000E+00
