Zr1 Nb1 Al6                             
   1.00000000000000     
     3.8991981472711532    0.0000000000000000   -0.0000000000000000
    -0.0000000000000000    3.8991981472711532   -0.0000000000000000
     0.0000000000000000    0.0000000000000000    8.8510714586755803
   Zr   Nb   Al
     1     1     6
Direct
  0.5000000000000000  0.5000000000000000  0.5000000000000000
 -0.0000000000000000  0.0000000000000000 -0.0000000000000000
  0.5000000000000000  0.5000000000000000 -0.0000000000000000
 -0.0000000000000000  0.0000000000000000  0.5000000000000000
  0.0000000000000000  0.5000000000000000  0.2441139652149556
  0.5000000000000000 -0.0000000000000000  0.7558860347850443
  0.5000000000000000  0.0000000000000000  0.2441139652149556
 -0.0000000000000000  0.5000000000000000  0.7558860347850443
 
  0.00000000E+00  0.00000000E+00  0.00000000E+00
  0.00000000E+00  0.00000000E+00  0.00000000E+00
  0.00000000E+00  0.00000000E+00  0.00000000E+00
  0.00000000E+00  0.00000000E+00  0.00000000E+00
  0.00000000E+00  0.00000000E+00  0.00000000E+00
  0.00000000E+00  0.00000000E+00  0.00000000E+00
  0.00000000E+00  0.00000000E+00  0.00000000E+00
  0.00000000E+00  0.00000000E+00  0.00000000E+00
