fcc_Al4_Cu0_Nb0_Ni12_Ta8_W0_Zr8         
   1.00000000000000     
     8.3940725416644533    0.0000000000000000    0.0000000000000000
     0.0000000000000000    7.3437103653720817    0.0000000000000000
     0.0000000000000000    0.0000000000000000    8.4806996982782277
   Al   Ni   Ta   Zr
     4    12     8     8
Direct
  0.4839712937585797  0.4638170964725861  0.0201604938200095
  0.7660287062414198  0.7861829035274137  0.0201604938200095
  0.4839712937585797  0.7861829035274137  0.2298395061799905
  0.7660287062414198  0.4638170964725861  0.2298395061799905
 -0.0044140533908435  0.5059485996865495  0.0171474132075123
  0.2544140533908435  0.7440514003134505  0.0171474132075123
 -0.0044140533908435  0.7440514003134505  0.2328525867924879
  0.2544140533908435  0.5059485996865495  0.2328525867924879
  0.5083370516498424  0.0166195281975876  0.5161595654125319
  0.7416629483501578  0.2333804718024124  0.5161595654125319
  0.5083370516498424  0.2333804718024124  0.7338404345874683
  0.7416629483501578  0.0166195281975876  0.7338404345874683
  0.0250411772952587 -0.0051086700957177  0.0178537751615220
  0.2249588227047413  0.2551086700957177  0.0178537751615220
  0.0250411772952587  0.2551086700957177  0.2321462248384780
  0.2249588227047413 -0.0051086700957177  0.2321462248384780
  0.4754177645654337  0.0396172792813205 -0.0037627632122000
  0.7745822354345657  0.2103827207186796 -0.0037627632122000
  0.4754177645654337  0.2103827207186795  0.2537627632122000
  0.7745822354345657  0.0396172792813205  0.2537627632122000
  0.0006091901399447  0.0142344749704651  0.4897544536412166
  0.2493908098600552  0.2357655250295350  0.4897544536412166
  0.0006091901399447  0.2357655250295350  0.7602455463587833
  0.2493908098600552  0.0142344749704651  0.7602455463587833
  0.5110359057519120  0.4818207799445284  0.4710586900240813
  0.7389640942480881  0.7681792200554710  0.4710586900240814
  0.5110359057519120  0.7681792200554710  0.7789413099759190
  0.7389640942480881  0.4818207799445284  0.7789413099759190
 -0.0101884221991169  0.4832147820759919  0.4791228040880707
  0.2601884221991168  0.7667852179240081  0.4791228040880707
 -0.0101884221991169  0.7667852179240081  0.7708771959119288
  0.2601884221991168  0.4832147820759919  0.7708771959119288
 
  0.00000000E+00  0.00000000E+00  0.00000000E+00
  0.00000000E+00  0.00000000E+00  0.00000000E+00
  0.00000000E+00  0.00000000E+00  0.00000000E+00
  0.00000000E+00  0.00000000E+00  0.00000000E+00
  0.00000000E+00  0.00000000E+00  0.00000000E+00
  0.00000000E+00  0.00000000E+00  0.00000000E+00
  0.00000000E+00  0.00000000E+00  0.00000000E+00
  0.00000000E+00  0.00000000E+00  0.00000000E+00
  0.00000000E+00  0.00000000E+00  0.00000000E+00
  0.00000000E+00  0.00000000E+00  0.00000000E+00
  0.00000000E+00  0.00000000E+00  0.00000000E+00
  0.00000000E+00  0.00000000E+00  0.00000000E+00
  0.00000000E+00  0.00000000E+00  0.00000000E+00
  0.00000000E+00  0.00000000E+00  0.00000000E+00
  0.00000000E+00  0.00000000E+00  0.00000000E+00
  0.00000000E+00  0.00000000E+00  0.00000000E+00
  0.00000000E+00  0.00000000E+00  0.00000000E+00
  0.00000000E+00  0.00000000E+00  0.00000000E+00
  0.00000000E+00  0.00000000E+00  0.00000000E+00
  0.00000000E+00  0.00000000E+00  0.00000000E+00
  0.00000000E+00  0.00000000E+00  0.00000000E+00
  0.00000000E+00  0.00000000E+00  0.00000000E+00
  0.00000000E+00  0.00000000E+00  0.00000000E+00
  0.00000000E+00  0.00000000E+00  0.00000000E+00
  0.00000000E+00  0.00000000E+00  0.00000000E+00
  0.00000000E+00  0.00000000E+00  0.00000000E+00
  0.00000000E+00  0.00000000E+00  0.00000000E+00
  0.00000000E+00  0.00000000E+00  0.00000000E+00
  0.00000000E+00  0.00000000E+00  0.00000000E+00
  0.00000000E+00  0.00000000E+00  0.00000000E+00
  0.00000000E+00  0.00000000E+00  0.00000000E+00
  0.00000000E+00  0.00000000E+00  0.00000000E+00
