Ta1 Al2 Ni9
1.0
   3.5757116099999999    0.0000000000000000    0.0000000000000000
   0.0000000000000000    3.5757116099999999   -0.0000000000000000
   0.0000000000000000    0.0000000000000000   10.5717169900000005
Ta Al Ni
1 2 9
direct
   0.0000000000000000    0.0000000000000000    0.0000000000000000 Ta
   0.0000000000000000   -0.0000000000000000    0.3392208400000000 Al
   0.0000000000000000    0.0000000000000000    0.6607791600000000 Al
   0.5000000000000000    0.5000000000000000    0.0000000000000000 Ni
   0.5000000000000000    0.5000000000000000    0.3366412100000000 Ni
   0.5000000000000000    0.5000000000000000    0.6633587900000000 Ni
   0.5000000000000000    0.0000000000000000    0.1717993800000000 Ni
   0.5000000000000000    0.0000000000000000    0.5000000000000000 Ni
   0.5000000000000000   -0.0000000000000000    0.8282006200000001 Ni
   0.0000000000000000    0.5000000000000000    0.1717993800000000 Ni
   0.0000000000000000    0.5000000000000000    0.5000000000000000 Ni
  -0.0000000000000000    0.5000000000000000    0.8282006200000001 Ni
