Ni2 
1.0
2.4783305641164590e+00 0.0000000000000000e+00 0.0000000000000000e+00 
-1.2391655436560238e+00 2.1462974885239019e+00 0.0000000000000000e+00 
0.0000000000000000e+00 0.0000000000000000e+00 4.0943823124778307e+00 
Ni 
2 
Cartesian
  -0.0000014136    1.4308657078    1.0235955781
   1.2391664340    0.7154317807    3.0707867344
