Al6 Zr1 Nb1 
1.0
3.9150867435037378e+00 0.0000000000000000e+00 0.0000000000000000e+00 
0.0000000000000000e+00 3.9150867239547860e+00 0.0000000000000000e+00 
0.0000000000000000e+00 0.0000000000000000e+00 8.7896379042177042e+00 
Al Zr Nb 
6 1 1 
Cartesian
   1.9575433718    1.9575433620    0.0000000251
   3.9150867435    1.9575433620    2.1454802953
   1.9575433718    3.9150867240    2.1454802953
   0.0000000463    0.0000000145    4.3948189521
   1.9575433718    3.9150867240    6.6441576089
   3.9150867435    1.9575433620    6.6441576089
   1.9575433718    1.9575433620    4.3948189521
   3.9150867435    0.0000000154    0.0000000696
