Al2 Ni6 
1.0
5.0463557957803182e+00 0.0000000000000000e+00 0.0000000000000000e+00 
-2.5229981509675237e+00 4.3702701301185547e+00 0.0000000000000000e+00 
0.0000000000000000e+00 0.0000000000000000e+00 4.1200217686301306e+00 
Al Ni 
2 6 
Cartesian
   0.0000971231    2.9135236174    3.0900163265
   2.5232605217    1.4567465127    1.0300054422
   0.0000643844    1.4427135754    1.0300054422
   1.2738956976    3.6489046019    1.0300054422
  -1.2736308659    3.6489308235    1.0300054422
   2.5232932604    2.9275565548    3.0900163265
   1.2494669936    0.7213655282    3.0900163265
   3.7969885107    0.7213393066    3.0900163265
