Ni3 Cu3 Zr3 Nb12 Ta3 
1.0
1.0270881299461021e+01 0.0000000000000000e+00 0.0000000000000000e+00 
2.0352417437114915e-06 6.3201331812494566e+00 0.0000000000000000e+00 
-1.9584758281967674e-05 2.1180989698211992e-02 6.3195308099069951e+00 
Ni Cu Zr Nb Ta 
3 3 3 12 3 
Cartesian
   3.4236041080    0.0592955391    6.3181468327
  -0.0000194895    0.0592954759    6.3181468327
   6.8472380551    0.0592955391    6.3181468327
   1.7118138368    4.8116098541    1.5116064916
   5.1354375130    4.8116098541    1.5116064916
   8.5590611892    4.8116098541    1.5116064916
   1.7118034376    4.8181211888    4.8666833158
   5.1354271138    4.8181211888    4.8666833158
   8.5590507900    4.8181211888    4.8666833158
   3.4236162793    6.3283551723    3.0433154107
   3.4236150087    3.1859865425    3.1267584955
   1.7118126500    1.5057813938    1.5510150857
   3.4236243565    3.1000088389    0.1025640892
  -0.0000072578    6.3283551723    3.0433154107
  -0.0000085879    3.1859865425    3.1267584955
   0.0000011953    3.1000088389    0.1025640892
   6.8472502264    6.3283551723    3.0433154107
   6.8472489558    3.1859865425    3.1267584955
   5.1354363262    1.5057813938    1.5510150857
   8.5590600024    1.5057813938    1.5510150857
   6.8472583036    3.1000088389    0.1025640892
   1.7118027240    1.5560942926    4.7580316226
   5.1354264002    1.5560942926    4.7580316226
   8.5590500763    1.5560942926    4.7580316226
