Ni3 Nb1 
1.0
3.7228828995879093e+00 0.0000000000000000e+00 0.0000000000000000e+00 
-1.4369288327624610e-17 3.7228828995879093e+00 0.0000000000000000e+00 
-1.7012695142612157e-17 -1.0573627259950184e-17 3.7228828995879093e+00 
Ni Nb 
3 1 
Cartesian
  -0.0000000000    1.8614414498    1.8614414498
   1.8614414498    1.8614414498    0.0000000000
   1.8614414498   -0.0000000000    1.8614414498
  -0.0000000000    0.0000000000    0.0000000000
