Ta1
1.0
   2.7024853499999999    0.0000000000000000   -0.9554724600000000
  -1.3512421699999999    2.3404222500000000   -0.9554724600000000
   0.0000000000000000    0.0000000000000000    2.8664184100000001
Ta
1
direct
  -0.0000000000000000    0.0000000000000000    0.0000000000000000 Ta
