Al2 Nb6 
1.0
5.1976530197296178e+00 0.0000000000000000e+00 0.0000000000000000e+00 
3.2819228696337177e-09 5.1976530245687931e+00 0.0000000000000000e+00 
1.5429500315256297e-09 -3.6622660927066811e-09 5.1976530344173044e+00 
Al Nb 
2 6 
Cartesian
   0.0000038838    0.0000017538    0.0000000001
   2.5988265123    2.5988265105    2.5988265172
   1.2994132590    5.1976530227    2.5988265172
   3.8982397689    5.1976530227    2.5988265172
   5.1976530218    2.5988265114    1.2994132586
   0.0000000032    2.5988265095    3.8982397758
   2.5988265139    3.8982345671    5.1976530344
   2.5988265107    1.2994132561    0.0000000005
