Zr2 W4 
1.0
5.3698787780391335e+00 0.0000000000000000e+00 0.0000000000000000e+00 
2.6851273916336402e+00 4.6504898239226264e+00 0.0000000000000000e+00 
2.6850647259790859e+00 1.5502080700680392e+00 4.3846305578087872e+00 
Zr W 
2 4 
Cartesian
   1.3424820141    0.7751244407    0.5480788197
   9.3975351858    5.4256478612    3.8365517381
   5.3700327661    3.1004032035    2.1923898176
   6.7126564178    3.8755506423    4.3846305578
   4.0274595994    0.7751542903    2.1922802019
   8.0549667828    3.1003815000    2.1922758172
