Al2 Ni12 Ta2 
1.0
5.0990754978674460e+00 0.0000000000000000e+00 0.0000000000000000e+00 
-2.5495222638842661e+00 4.4159264455631311e+00 0.0000000000000000e+00 
4.0023794052044600e-16 -3.0397250802788356e-16 8.2681230095149516e+00 
Al Ni Ta 
2 12 2 
Cartesian
  -0.0000738114    2.9439524357    6.2010922571
   2.5494587759    1.4719740099    2.0670307524
   2.5495938295    2.9056001145    6.2010922571
   1.3081908634    0.7551675815    6.2010922571
   3.7912978567    0.7551587496    6.2010922571
   0.0000511878    1.5103263311    2.0670307524
   1.2417753958    3.6607676960    2.0670307524
  -1.2413417958    3.6607588641    2.0670307524
   1.2749576342    2.2079676387    0.0000017559
   0.0010098048    4.4159264456    0.0000000000
  -1.2745801500    2.2079588069    8.2681230095
   1.2749576342    2.2079676387    4.1340615048
   0.0010098048    4.4159264456    4.1340615048
  -1.2745801500    2.2079588069    4.1340615048
  -2.5482459398    4.4159264456    8.2681230095
  -2.5482459398    4.4159264456    4.1340615048
