fcc_Al0_Cu4_Nb0_Ni12_Ta8_W8_Zr0         
   1.00000000000000     
     8.3553791298426603    0.0000000000000000    0.0000000000000000
     0.0000000000000000    6.7117585123296442    0.0000000000000000
     0.0000000000000000    0.0000000000000000    8.1878599080809469
   Cu   Ni   Ta   W 
     4    12     8     8
Direct
  0.5048134456979559 -0.0197790694663535  0.5090157418206009
  0.7451865543020441  0.2697790694663537  0.5090157418206009
  0.5048134456979559  0.2697790694663537  0.7409842581793991
  0.7451865543020441 -0.0197790694663535  0.7409842581793991
  0.4940597589665513  0.5174794739113968 -0.0056845212640677
  0.7559402410334488  0.7325205260886032 -0.0056845212640677
  0.4940597589665513  0.7325205260886032  0.2556845212640678
  0.7559402410334488  0.5174794739113968  0.2556845212640678
  0.5065713576962640  0.5123096211181247  0.5093261378998363
  0.7434286423037360  0.7376903788818753  0.5093261378998363
  0.5065713576962640  0.7376903788818753  0.7406738621001637
  0.7434286423037360  0.5123096211181247  0.7406738621001637
 -0.0047823350867552  0.5267075078444685  0.4986856071144014
  0.2547823350867552  0.7232924921555315  0.4986856071144014
 -0.0047823350867552  0.7232924921555315  0.7513143928855984
  0.2547823350867552  0.5267075078444685  0.7513143928855984
  0.5144530113391139 -0.0298873613342628 -0.0147851263441548
  0.7355469886608861  0.2798873613342626 -0.0147851263441548
  0.5144530113391139  0.2798873613342626  0.2647851263441547
  0.7355469886608861 -0.0298873613342628  0.2647851263441547
 -0.0148241056308610 -0.0013477200066564 -0.0210484430883013
  0.2648241056308610  0.2513477200066564 -0.0210484430883013
 -0.0148241056308610  0.2513477200066564  0.2710484430883013
  0.2648241056308610 -0.0013477200066564  0.2710484430883013
 -0.0076498231624596 -0.0257278428663850  0.5226062762786522
  0.2576498231624598  0.2757278428663850  0.5226062762786522
 -0.0076498231624596  0.2757278428663850  0.7273937237213478
  0.2576498231624598 -0.0257278428663850  0.7273937237213478
  0.0012350746227406  0.4963024679959495 -0.0034892637939906
  0.2487649253772594  0.7536975320040504 -0.0034892637939906
  0.0012350746227406  0.7536975320040504  0.2534892637939906
  0.2487649253772594  0.4963024679959495  0.2534892637939906
 
  0.00000000E+00  0.00000000E+00  0.00000000E+00
  0.00000000E+00  0.00000000E+00  0.00000000E+00
  0.00000000E+00  0.00000000E+00  0.00000000E+00
  0.00000000E+00  0.00000000E+00  0.00000000E+00
  0.00000000E+00  0.00000000E+00  0.00000000E+00
  0.00000000E+00  0.00000000E+00  0.00000000E+00
  0.00000000E+00  0.00000000E+00  0.00000000E+00
  0.00000000E+00  0.00000000E+00  0.00000000E+00
  0.00000000E+00  0.00000000E+00  0.00000000E+00
  0.00000000E+00  0.00000000E+00  0.00000000E+00
  0.00000000E+00  0.00000000E+00  0.00000000E+00
  0.00000000E+00  0.00000000E+00  0.00000000E+00
  0.00000000E+00  0.00000000E+00  0.00000000E+00
  0.00000000E+00  0.00000000E+00  0.00000000E+00
  0.00000000E+00  0.00000000E+00  0.00000000E+00
  0.00000000E+00  0.00000000E+00  0.00000000E+00
  0.00000000E+00  0.00000000E+00  0.00000000E+00
  0.00000000E+00  0.00000000E+00  0.00000000E+00
  0.00000000E+00  0.00000000E+00  0.00000000E+00
  0.00000000E+00  0.00000000E+00  0.00000000E+00
  0.00000000E+00  0.00000000E+00  0.00000000E+00
  0.00000000E+00  0.00000000E+00  0.00000000E+00
  0.00000000E+00  0.00000000E+00  0.00000000E+00
  0.00000000E+00  0.00000000E+00  0.00000000E+00
  0.00000000E+00  0.00000000E+00  0.00000000E+00
  0.00000000E+00  0.00000000E+00  0.00000000E+00
  0.00000000E+00  0.00000000E+00  0.00000000E+00
  0.00000000E+00  0.00000000E+00  0.00000000E+00
  0.00000000E+00  0.00000000E+00  0.00000000E+00
  0.00000000E+00  0.00000000E+00  0.00000000E+00
  0.00000000E+00  0.00000000E+00  0.00000000E+00
  0.00000000E+00  0.00000000E+00  0.00000000E+00
