Al4 Ni4 Nb4 
1.0
4.9234061419756054e+00 0.0000000000000000e+00 0.0000000000000000e+00 
2.3416557826124937e+00 4.3309587971243797e+00 0.0000000000000000e+00 
-1.1244878208765418e-07 2.3662164010825378e-07 8.0127363778330825e+00 
Al Ni Nb 
4 4 4 
Cartesian
   7.2152263670    4.3012355420    3.8963132548
   7.2152264201    4.3012354301    0.1100549341
   4.9406168434    1.5184559865    6.0095522834
   3.6856186893    3.6239819225    6.0095522834
   6.0939549922    3.6327564450    6.0095522834
   2.3731847007    2.8115978768    2.0031840945
   3.6018892302    0.7503949732    2.0031840945
   1.2373088860    0.7376532924    2.0031840945
   2.4366452083    1.4525993803    4.4246891170
   4.8095593267    2.8671034879    3.4627521021
   4.8095593677    2.8671034017    0.5436136830
   2.4366451638    1.4525994739    7.5944154498
