Ni1
1.0
   2.1280833399999999   -0.0000000000000000    1.2286494299999999
   0.7093607800000000    2.0063768799999999    1.2286494299999999
  -0.0000000000000000   -0.0000000000000000    2.4572988499999999
Ni
1
direct
  -0.0000000000000000   -0.0000000000000000    0.0000000000000000 Ni
