Al6 Ni3 Cu6 Zr6 W3 
1.0
1.0401779254290975e+01 0.0000000000000000e+00 0.0000000000000000e+00 
3.7032557969928470e-01 5.4138100981874278e+00 0.0000000000000000e+00 
2.3141192296580371e-01 -9.8159395515920470e-02 6.8671868606620894e+00 
Al Ni Cu Zr W 
6 3 6 6 3 
Cartesian
   2.0712976320    4.4362874169    4.3517912511
   3.7301285378    2.3291261425    4.3721112570
   4.8620179219    2.6690847786    6.8238549116
   0.9416676386    3.3217913401    2.0466139657
   9.5856274021    3.9975368933    4.4680046543
   6.5622849780    3.3939248010    4.4179634637
   3.3820949914    3.4339698878    1.9940387831
   5.9649275562    3.9246993270    1.8046623710
   9.3753739103    4.5410349089    1.5989763902
   2.3337794690    2.7320013646    6.6543658727
   4.5594309846    4.7501197678    3.7038103661
  10.0304708285    2.8430035774    6.6867377915
  10.3418217762    0.3017225768    3.0080063918
   7.2821251126    2.2267812142    6.8632931657
   7.7767993297    5.1143407870    3.1738352201
   3.6549108515    0.0104591027    6.3011383821
   2.4278346885    0.8557602395    2.1517162606
   0.3776148838    0.0926983158    6.7346776230
   5.4830201515    1.3578003745    2.2531308762
   7.7635187086    4.8367531466    6.8279889581
   8.5153812483    2.2177902610    2.2617903988
   0.9643327282    1.8935924037    4.5871091433
   6.0169195277    0.8462199350    5.0113433459
   8.7330689437    1.3668302549    4.9108283319
