Zr2 Ni4
1.0
   4.2326748700000003    0.0000000000000000    2.4437359399999998
   1.4108923000000000    3.9906054399999999    2.4437359399999998
  -0.0000000000000000   -0.0000000000000000    4.8874728799999998
Zr Ni
2 4
direct
   0.8750000000000000    0.8750000000000000    0.8750000000000000 Zr
   0.1250000000000000    0.1250000000000000    0.1250000000000000 Zr
   0.5000000000000000    0.5000000000000000    0.5000000000000000 Ni
   0.5000000000000000    0.5000000000000000    0.0000000000000000 Ni
  -0.0000000000000000    0.5000000000000000    0.5000000000000000 Ni
   0.5000000000000000    0.0000000000000000    0.5000000000000000 Ni
