Ni6 Nb7 
1.0
5.0047285047684351e+00 0.0000000000000000e+00 0.0000000000000000e+00 
2.5023071621104145e+00 4.3342145458410428e+00 0.0000000000000000e+00 
2.5023289723247522e+00 1.4446973443294591e+00 8.8744522393636380e+00 
Ni Nb 
6 7 
Cartesian
   3.7473111622    0.7259523776    2.0618991077
   1.2574277014    0.7259671135    2.0620056012
   2.5023265151    2.8822894166    2.0618369866
   6.2621650816    5.0530285711    6.8125353827
   8.7520850763    5.0530386840    6.8125975039
   7.5071447236    2.8967308295    6.8124821360
   5.0048726261    0.0002842978    0.0000000227
   2.5023821444    1.4447437807    4.4345549096
   7.5070625699    4.3342114516    4.4398973298
   5.0048027734    2.8895462933    8.3503803368
   5.0047435354    2.8895253850    0.5240683528
   5.0047524996    2.8894918411    5.7413889974
   5.0046897125    2.8894503886    3.1330632419
