bcc_Al0_Cu18_Nb0_Ni0_Ta0_W0_Zr6         
   1.00000000000000     
     9.2157774393018990    0.0000000000000000    0.0000000000000000
     0.0000000000000000    6.1515780110306491    0.0000000000000000
     0.0000000000000000    0.0000000000000000    6.2455380056520644
   Cu   Zr
    18     6
Direct
  0.0000000000000000  0.0000000000000000  0.5439518451258374
  0.3333333333333357  0.0000000000000000  0.5439518451258374
  0.6666666666666643 -0.0000000000000000  0.5439518451258374
  0.0000000000000000  0.5000000000000000  0.5439518451258374
  0.3333333333333357  0.5000000000000000  0.5439518451258374
  0.6666666666666643  0.5000000000000000  0.5439518451258374
  0.1666666666666643  0.2500000000000000  0.7500000000000000
  0.5000000000000000  0.2500000000000000  0.7500000000000000
  0.8333333333333357  0.2500000000000000  0.7500000000000000
  0.0000000000000000  0.5000000000000000 -0.0439518451258374
  0.3333333333333357  0.5000000000000000 -0.0439518451258374
  0.6666666666666643  0.5000000000000000 -0.0439518451258374
  0.1666666666666643  0.7500000000000000  0.7500000000000000
  0.5000000000000000  0.7500000000000000  0.7500000000000000
  0.8333333333333357  0.7500000000000000  0.7500000000000000
  0.0000000000000000 -0.0000000000000000 -0.0439518451258374
  0.3333333333333357 -0.0000000000000000 -0.0439518451258374
  0.6666666666666643 -0.0000000000000000 -0.0439518451258374
  0.1666666666666643  0.2500000000000000  0.2500000000000000
  0.5000000000000000  0.2500000000000000  0.2500000000000000
  0.8333333333333357  0.2500000000000000  0.2500000000000000
  0.1666666666666643  0.7500000000000000  0.2500000000000000
  0.5000000000000000  0.7500000000000000  0.2500000000000000
  0.8333333333333357  0.7500000000000000  0.2500000000000000
 
  0.00000000E+00  0.00000000E+00  0.00000000E+00
  0.00000000E+00  0.00000000E+00  0.00000000E+00
  0.00000000E+00  0.00000000E+00  0.00000000E+00
  0.00000000E+00  0.00000000E+00  0.00000000E+00
  0.00000000E+00  0.00000000E+00  0.00000000E+00
  0.00000000E+00  0.00000000E+00  0.00000000E+00
  0.00000000E+00  0.00000000E+00  0.00000000E+00
  0.00000000E+00  0.00000000E+00  0.00000000E+00
  0.00000000E+00  0.00000000E+00  0.00000000E+00
  0.00000000E+00  0.00000000E+00  0.00000000E+00
  0.00000000E+00  0.00000000E+00  0.00000000E+00
  0.00000000E+00  0.00000000E+00  0.00000000E+00
  0.00000000E+00  0.00000000E+00  0.00000000E+00
  0.00000000E+00  0.00000000E+00  0.00000000E+00
  0.00000000E+00  0.00000000E+00  0.00000000E+00
  0.00000000E+00  0.00000000E+00  0.00000000E+00
  0.00000000E+00  0.00000000E+00  0.00000000E+00
  0.00000000E+00  0.00000000E+00  0.00000000E+00
  0.00000000E+00  0.00000000E+00  0.00000000E+00
  0.00000000E+00  0.00000000E+00  0.00000000E+00
  0.00000000E+00  0.00000000E+00  0.00000000E+00
  0.00000000E+00  0.00000000E+00  0.00000000E+00
  0.00000000E+00  0.00000000E+00  0.00000000E+00
  0.00000000E+00  0.00000000E+00  0.00000000E+00
