Ni3 Cu3 Zr9 Ta3 W6 
1.0
1.0252552388486924e+01 0.0000000000000000e+00 0.0000000000000000e+00 
6.0361084188523257e-08 4.5432399304642965e+00 0.0000000000000000e+00 
-4.6646173820199868e-08 8.6323900335989554e-03 8.9982020823081026e+00 
Ni Cu Zr Ta W 
3 3 9 3 6 
Cartesian
   0.2852444662    0.3606387254    0.1174202384
   1.7087621426    0.4032794931    2.2562901739
   3.1322777895    0.3606387254    0.1174202384
   4.9268538096    2.6583249360    4.5158556934
   8.7432229005    2.6583249360    4.5158556934
   6.8350383439    2.6508201643    6.6286965298
   3.3844495463    0.3861032260    4.3626613030
   0.0330646690    0.3861032260    4.3626613030
   6.8350383662    2.6639092079    2.3806813195
   4.9337332491    2.6540560332    8.9645578047
   4.9985191083    0.3763825821    6.8575388051
   1.7087621182    0.3761842019    6.8723858386
   6.8350383250    0.3948975975    4.5080722486
   8.7363331621    2.6540560332    8.9645578047
   8.6715472642    0.3763825821    6.8575388051
   4.9334769409    0.3924214024    2.1045354958
   6.8350383474    0.3743365373    0.1400930082
   8.7365894815    0.3924214024    2.1045354958
   0.2069775264    2.6659704150    2.1897664659
   1.7087621837    2.6358769479    0.0454584670
   3.2105355417    2.6659704150    2.1897664659
   1.7087621609    2.6569275967    4.4989750663
   0.1921277058    2.6484380699    6.7124427966
   3.2253914664    2.6484380699    6.7124427966
