bcc_Al0_Cu3_Nb0_Ni3_Ta6_W9_Zr3          
   1.00000000000000     
     9.7136260900578897    0.0000000000000000    0.0000000000000000
     0.0000000000000000    6.3485217237977025   -0.0180217078157807
     0.0000000000000000   -0.0180217078157807    6.3485217237977025
   Cu   Ni   Ta   W    Zr
     3     3     6     9     3
Direct
  0.1666666666666643  0.7591987000552414  0.2591987000552414
  0.5000000000000000  0.7591987000552414  0.2591987000552414
  0.8333333333333357  0.7591987000552414  0.2591987000552414
  0.1666666666666643  0.2434028152349488  0.7434028152349488
  0.5000000000000000  0.2434028152349488  0.7434028152349488
  0.8333333333333357  0.2434028152349488  0.7434028152349488
  0.0000000000000000  0.0000630867589731 -0.0008722562843020
  0.3333333333333357  0.0000630867589731 -0.0008722562843020
  0.6666666666666643  0.0000630867589731 -0.0008722562843020
  0.0000000000000000  0.4991277437156981  0.5000630867589730
  0.3333333333333357  0.4991277437156981  0.5000630867589730
  0.6666666666666643  0.4991277437156981  0.5000630867589730
  0.1666666666666643  0.2369054270688236  0.2610826301532104
  0.5000000000000000  0.2369054270688236  0.2610826301532104
  0.8333333333333357  0.2369054270688236  0.2610826301532104
  0.1666666666666643  0.7610826301532105  0.7369054270688237
  0.5000000000000000  0.7610826301532105  0.7369054270688237
  0.8333333333333357  0.7610826301532105  0.7369054270688237
  0.0000000000000000  0.0013846501208327  0.5013846501208328
  0.3333333333333357  0.0013846501208327  0.5013846501208328
  0.6666666666666643  0.0013846501208327  0.5013846501208328
  0.0000000000000000  0.4988349468922720 -0.0011650531077280
  0.3333333333333357  0.4988349468922720 -0.0011650531077280
  0.6666666666666643  0.4988349468922720 -0.0011650531077280
 
  0.00000000E+00  0.00000000E+00  0.00000000E+00
  0.00000000E+00  0.00000000E+00  0.00000000E+00
  0.00000000E+00  0.00000000E+00  0.00000000E+00
  0.00000000E+00  0.00000000E+00  0.00000000E+00
  0.00000000E+00  0.00000000E+00  0.00000000E+00
  0.00000000E+00  0.00000000E+00  0.00000000E+00
  0.00000000E+00  0.00000000E+00  0.00000000E+00
  0.00000000E+00  0.00000000E+00  0.00000000E+00
  0.00000000E+00  0.00000000E+00  0.00000000E+00
  0.00000000E+00  0.00000000E+00  0.00000000E+00
  0.00000000E+00  0.00000000E+00  0.00000000E+00
  0.00000000E+00  0.00000000E+00  0.00000000E+00
  0.00000000E+00  0.00000000E+00  0.00000000E+00
  0.00000000E+00  0.00000000E+00  0.00000000E+00
  0.00000000E+00  0.00000000E+00  0.00000000E+00
  0.00000000E+00  0.00000000E+00  0.00000000E+00
  0.00000000E+00  0.00000000E+00  0.00000000E+00
  0.00000000E+00  0.00000000E+00  0.00000000E+00
  0.00000000E+00  0.00000000E+00  0.00000000E+00
  0.00000000E+00  0.00000000E+00  0.00000000E+00
  0.00000000E+00  0.00000000E+00  0.00000000E+00
  0.00000000E+00  0.00000000E+00  0.00000000E+00
  0.00000000E+00  0.00000000E+00  0.00000000E+00
  0.00000000E+00  0.00000000E+00  0.00000000E+00
