bcc_Al0_Cu0_Nb3_Ni3_Ta12_W6_Zr0         
   1.00000000000000     
     9.9058395888847066    0.0000000000000000    0.0000000000000000
     0.0000000000000000    6.4193811630437798    0.0000000000000000
     0.0000000000000000    0.0000000000000000    6.3479553598567158
   Nb   Ni   Ta   W 
     3     3    12     6
Direct
  0.1666666666666643  0.2500000000000000  0.2634649034298794
  0.5000000000000000  0.2500000000000000  0.2634649034298794
  0.8333333333333357  0.2500000000000000  0.2634649034298794
  0.1666666666666643  0.2500000000000000  0.7469492889194197
  0.5000000000000000  0.2500000000000000  0.7469492889194197
  0.8333333333333357  0.2500000000000000  0.7469492889194197
  0.0000000000000000  0.0098148833256871 -0.0046365358967365
  0.3333333333333357  0.0098148833256871 -0.0046365358967365
  0.6666666666666643  0.0098148833256871 -0.0046365358967365
  0.0000000000000000  0.4901851166743129 -0.0046365358967365
  0.3333333333333357  0.4901851166743129 -0.0046365358967365
  0.6666666666666643  0.4901851166743129 -0.0046365358967365
  0.1666666666666643  0.7500000000000000  0.2513241205910188
  0.5000000000000000  0.7500000000000000  0.2513241205910188
  0.8333333333333357  0.7500000000000000  0.2513241205910188
  0.1666666666666643  0.7500000000000000  0.7428130875558259
  0.5000000000000000  0.7500000000000000  0.7428130875558259
  0.8333333333333357  0.7500000000000000  0.7428130875558259
  0.0000000000000000  0.4993567660007487  0.5023608356486645
  0.3333333333333357  0.4993567660007487  0.5023608356486645
  0.6666666666666643  0.4993567660007487  0.5023608356486645
  0.0000000000000000  0.0006432339992512  0.5023608356486645
  0.3333333333333357  0.0006432339992512  0.5023608356486645
  0.6666666666666643  0.0006432339992512  0.5023608356486645
 
  0.00000000E+00  0.00000000E+00  0.00000000E+00
  0.00000000E+00  0.00000000E+00  0.00000000E+00
  0.00000000E+00  0.00000000E+00  0.00000000E+00
  0.00000000E+00  0.00000000E+00  0.00000000E+00
  0.00000000E+00  0.00000000E+00  0.00000000E+00
  0.00000000E+00  0.00000000E+00  0.00000000E+00
  0.00000000E+00  0.00000000E+00  0.00000000E+00
  0.00000000E+00  0.00000000E+00  0.00000000E+00
  0.00000000E+00  0.00000000E+00  0.00000000E+00
  0.00000000E+00  0.00000000E+00  0.00000000E+00
  0.00000000E+00  0.00000000E+00  0.00000000E+00
  0.00000000E+00  0.00000000E+00  0.00000000E+00
  0.00000000E+00  0.00000000E+00  0.00000000E+00
  0.00000000E+00  0.00000000E+00  0.00000000E+00
  0.00000000E+00  0.00000000E+00  0.00000000E+00
  0.00000000E+00  0.00000000E+00  0.00000000E+00
  0.00000000E+00  0.00000000E+00  0.00000000E+00
  0.00000000E+00  0.00000000E+00  0.00000000E+00
  0.00000000E+00  0.00000000E+00  0.00000000E+00
  0.00000000E+00  0.00000000E+00  0.00000000E+00
  0.00000000E+00  0.00000000E+00  0.00000000E+00
  0.00000000E+00  0.00000000E+00  0.00000000E+00
  0.00000000E+00  0.00000000E+00  0.00000000E+00
  0.00000000E+00  0.00000000E+00  0.00000000E+00
