Al4 Ni4 Nb4 Ta8 W12 
1.0
6.3018567362906541e+00 0.0000000000000000e+00 0.0000000000000000e+00 
0.0000000000000000e+00 8.9644330599623743e+00 0.0000000000000000e+00 
0.0000000000000000e+00 0.0000000000000000e+00 9.0761027192060340e+00 
Al Ni Nb Ta W 
4 4 4 8 12 
Cartesian
   4.7823908512    2.3884387223    4.5155698532
   3.0949300692    8.8171026026    4.5155698532
   3.0949300692    2.3884387223    6.8295585458
   4.7823908512    8.8171026026    6.8295585458
   6.2830709014    4.4400657657    4.4127557616
   1.5942500190    6.7654755592    4.4127557616
   1.5942500190    4.4400657657    6.9323726374
   6.2830709014    6.7654755592    6.9323726374
   1.5359704479    2.2433852310    4.5164048546
   0.0394945554    8.9621560940    4.5164048546
   0.0394943664    2.2433852310    6.8287235444
   1.5359704479    8.9621560940    6.8287235444
   3.1331634340    2.2795925761    2.2826035295
   4.7441574864    8.9259487488    2.2826035295
   4.7441574864    2.2795925761    9.0625157934
   3.1331634340    8.9259487488    9.0625157934
   3.0297940780    4.5452633877    4.5749547933
   4.8475268424    4.5452633877    6.7701736057
   3.0297940780    6.6602779373    6.7701826819
   4.8475268424    6.6602779373    4.5749547933
   0.0198901723    2.2799152957    2.2357073067
   1.5555755242    2.2799152957    0.0333149242
   1.5555755242    8.9256260292    2.2357073067
   0.0183479189    6.6845536220    2.2483412417
   1.5571194791    4.5209877030    2.2483412417
   3.1397299687    6.6911245514    2.2888115837
   4.7375846498    4.5144167735    2.2888115837
   0.0198902983    8.9256260292    0.0333150149
   0.0183476668    4.5209877030    0.0206847104
   1.5571194791    6.6845536220    0.0206848919
   3.1397299687    4.5144167735    9.0563168153
   4.7375846498    6.6911245514    9.0563168153
