Al2 Ni8 Zr10 
1.0
7.1615836750480319e+00 0.0000000000000000e+00 0.0000000000000000e+00 
0.0000000000000000e+00 7.1615825603935086e+00 0.0000000000000000e+00 
0.0000000000000000e+00 0.0000000000000000e+00 6.6866388991310295e+00 
Al Ni Zr 
2 8 10 
Cartesian
   3.5807918375    3.5807912802    1.6716597248
   3.5807918375    3.5807912802    5.0149791743
   4.5193961556    0.8672318402    4.7785262496
   0.8672319751    2.6421871082    5.2514320991
   6.2943516999    4.5193954521    5.2514320991
   6.2943516999    4.5193954521    1.4352068000
   2.6421875195    6.2943507202    4.7785262496
   2.6421875195    6.2943507202    1.9081126495
   4.5193961556    0.8672318402    1.9081126495
   0.8672319751    2.6421871082    1.4352068000
   2.5681080980    1.2448764117    6.6866388991
   5.9167070696    2.5681076982    3.3433194496
   1.2448766055    4.5934748621    3.3433194496
   7.1615836750    0.0000000037    5.0149791743
   1.4246538405    4.8064101964    6.6866388991
   4.5934755771    5.9167061487    0.0000000797
   2.3551727305    1.4246536187    3.3433194496
   4.8064109445    5.7369289417    3.3433194496
   5.7369298346    2.3551723640    0.0000000443
   0.0000000121    0.0000000405    1.6716597248
