Al10 Nb20 
1.0
5.1803925621893079e+00 0.0000000000000000e+00 0.0000000000000000e+00 
7.7188104329573197e-13 9.9615975179623195e+00 0.0000000000000000e+00 
2.3448021689778516e-12 3.7248999956980913e-11 9.9615975178653553e+00 
Al Nb 
10 20 
Cartesian
   0.0000000000    9.9615975180    0.0000000000
   2.5901962811    4.9807987590    4.9807987589
   5.1803925622    9.3061343629    2.5768560843
   2.5901962811    2.4039426746    4.3253356039
   2.5901962811    7.5576548434    5.6362619140
   0.0000000000    0.6554611628    7.3847414335
   2.5901962811    4.3253356039    2.4039426746
   2.5901962811    5.6362619141    7.5576548433
   5.1803925622    2.5768560844    9.3061343628
   0.0000000000    7.3847414336    0.6554611628
   0.0000000000    3.9321712731    3.9321712730
   2.5901962811    1.0486274860    8.9129700320
   2.5901962811    8.9129700320    1.0486274859
   5.1803925622    6.0294262449    6.0294262448
   5.1803925622    4.6295926769    1.3008252503
   2.5901962811    3.6799735087    9.6103914358
   2.5901962811    6.2816240093    0.3512050859
   0.0000000000    5.3320048411    8.6607722676
   2.5901962811    9.6103914359    3.6799735087
   2.5901962811    0.3512050860    6.2816240092
   5.1803925622    1.3008252503    4.6295926768
   0.0000000000    8.6607722677    5.3320048410
   1.3008794586    1.8186290893    1.8186290893
   3.8910757397    3.1621696697    6.7994278482
   3.8910757397    6.7994278483    3.1621696697
   1.3008794586    8.1429684287    8.1429684286
   1.2893168224    6.7994278483    3.1621696697
   1.2893168224    3.1621696697    6.7994278482
   3.8795131035    1.8186290893    1.8186290893
   3.8795131035    8.1429684287    8.1429684286
