Al12 Zr3 Nb6 W3 
1.0
8.6413503136104577e+00 0.0000000000000000e+00 0.0000000000000000e+00 
-5.8843566559986444e-07 5.0578457310530682e+00 0.0000000000000000e+00 
9.2859278631303773e-06 4.3919380152065098e-02 9.5166100429133245e+00 
Al Zr Nb W 
12 3 6 3 
Cartesian
   1.4402302820    0.0334307493    2.4102527923
   0.0462620155    2.5226553240    2.4536485341
   2.8341921779    2.5226553240    2.4536485341
   4.3177758857    3.4074149204    4.7312017161
   5.7609075942    0.7176126556    4.6995399544
   7.2040300972    3.4074149204    4.7312017161
   0.0236597811    5.0524502296    9.4769638455
   2.8568045128    5.0524502296    9.4769638455
   1.4402368697    2.5869403987    9.4622321331
   4.3530179764    0.9224529287    7.1637995088
   5.7609096703    3.5010060105    7.1577945278
   7.1687933347    0.9224529287    7.1637995088
   4.2477591724    2.4806406032    0.0186166781
   5.7609052518    2.4330280746    2.5046765972
   7.2740378244    2.4806406028    0.0186165829
   2.9861268266    0.9009454013    4.7468850894
   1.4402321344    3.4871119130    4.7192583705
   8.5356797702    0.9009454013    4.7468850894
   1.4402348306    1.0048775995    7.1850596156
   2.9206619283    3.4718445643    7.0727636171
   8.6011486118    3.4718445643    7.0727636171
   4.2346953974    5.0160375675    2.3146489279
   7.2871141341    5.0160375675    2.3146489279
   5.7609026128    4.9661490727    0.1034712460
