Ta1 W3                                  
   1.00000000000000     
     0.0000000000000000    3.2119669267933757    3.2119669267933757
     3.2119669267933757   -0.0000000000000000    3.2119669267933757
     3.2119669267933757    3.2119669267933757    0.0000000000000000
   Ta   W 
     1     3
Direct
  0.7500000000000000  0.7500000000000000  0.7500000000000000
 -0.0000000000000000  0.0000000000000000  0.0000000000000000
  0.5000000000000000  0.5000000000000000  0.5000000000000000
  0.2500000000000000  0.2500000000000000  0.2500000000000000
 
  0.00000000E+00  0.00000000E+00  0.00000000E+00
  0.00000000E+00  0.00000000E+00  0.00000000E+00
  0.00000000E+00  0.00000000E+00  0.00000000E+00
  0.00000000E+00  0.00000000E+00  0.00000000E+00
