Al2 Ni12 Ta2 
1.0
5.1307051374175270e+00 0.0000000000000000e+00 0.0000000000000000e+00 
-2.5653151989038814e+00 4.4433210951641255e+00 0.0000000000000000e+00 
-2.2854839815745922e-07 8.4865583446415564e-07 8.3557841342841428e+00 
Al Ni Ta 
2 12 2 
Cartesian
   2.5653572721    1.4811057628    2.0889460336
   0.0000170457    2.9622161810    6.2668381007
   0.0000103154    1.5383357385    2.0889460336
   1.2331983891    3.6741868691    2.0889961683
  -1.2330263915    3.6741202193    2.0888958989
   1.2826872732    2.2216649909    0.0000120364
   0.0003245750    4.4433215195    4.1778920671
   3.8481115564    2.2215321156    4.1778753556
   0.0000373698    4.4433210952    0.0000000588
   3.8480344826    2.2216569529    8.3557757785
   2.5653742638    2.9049862053    6.2668381007
   1.3323016316    0.7692017246    6.2668882354
   3.7985315418    0.7691350747    6.2667879660
   1.2827589899    2.2217898282    4.1779087787
   5.1306845892    0.0000000440    0.0000000615
  -2.5647732593    4.4433215195    4.1778920671
