Zr4 Nb24 W4 
1.0
6.6946237912010043e+00 0.0000000000000000e+00 0.0000000000000000e+00 
0.0000000000000000e+00 9.3319912582800093e+00 0.0000000000000000e+00 
0.0000000000000000e+00 0.0000000000000000e+00 9.3319944911684338e+00 
Zr Nb W 
4 24 4 
Cartesian
   5.1030907934    4.6631400398    2.3358542131
   3.2651889456    7.0018490330    2.3358542131
   3.2651889456    4.6631400398    9.3291389009
   5.1030907934    7.0018490330    9.3291389009
   0.0384585383    2.3271933160    2.3331199387
   1.6351953341    0.0058090339    2.3331199387
   3.3088713658    2.3357787480    2.3309082560
   5.0594083732    2.3357787480    0.0020946222
   5.0136171465    2.3355734442    4.6634216151
   1.6781815135    2.3344722692    4.6645227905
   3.3088713658    9.3292103249    0.0020946315
   3.3088713658    4.6680859952    4.6632163112
   5.0594083732    9.3292103249    2.3309082560
   3.3546625925    9.3294156287    4.6634216151
   5.0594083732    6.9969030777    4.6632163112
   6.6900982255    9.3305168037    4.6645227905
   0.0384584714    0.0058090152    9.3318731752
   1.6351953341    2.3271933160    9.3318731752
   0.0384584045    4.6658743133    4.6718110782
   1.6351953341    4.6658743133    6.9931913678
   6.6901049201    2.3344722692    7.0004703235
   3.3546625925    2.3355734442    7.0015714989
   1.6781748189    9.3305168037    7.0004703235
   1.6351953341    6.9991147596    4.6718017462
   0.0384584714    6.9991147596    6.9931913678
   3.3088713658    6.9969030777    7.0017768027
   5.0136171465    9.3294156287    7.0015714989
   5.0594083732    4.6680859952    7.0017768027
   1.5787127932    4.6641478949    2.3348463577
   0.0949418157    7.0008411780    2.3348463577
   0.0949418157    4.6641478949    9.3301467563
   1.5787127932    7.0008411780    9.3301467563
