Zr3 Ta1                                 
   1.00000000000000     
     4.4395648594763326    0.0000000000000000    0.0000000000000000
     0.0000000000000000    4.4395648594763326    0.0000000000000000
    -0.0000000000000000   -0.0000000000000000    4.4395648594763326
   Zr   Ta
     3     1
Direct
  0.0000000000000000  0.5000000000000000  0.5000000000000000
  0.5000000000000000  0.0000000000000000  0.5000000000000000
  0.5000000000000000  0.5000000000000000  0.0000000000000000
  0.0000000000000000  0.0000000000000000  0.0000000000000000
 
  0.00000000E+00  0.00000000E+00  0.00000000E+00
  0.00000000E+00  0.00000000E+00  0.00000000E+00
  0.00000000E+00  0.00000000E+00  0.00000000E+00
  0.00000000E+00  0.00000000E+00  0.00000000E+00
