fcc_Al0_Cu4_Nb4_Ni0_Ta12_W8_Zr4         
   1.00000000000000     
     9.3359657952122426    0.0000000000000000    0.0000000000000000
     0.0000000000000000    9.2066418145457636    0.0000000000000000
     0.0000000000000000    0.0000000000000000    6.5053943913105767
   Cu   Nb   Ta   W    Zr
     4     4    12     8     4
Direct
 -0.0026052956007736  0.5055236898816531  0.5083810128153072
  0.2526052956007736  0.7444763101183469  0.5083810128153072
 -0.0026052956007736  0.7444763101183469  0.7416189871846928
  0.2526052956007736  0.5055236898816531  0.7416189871846928
 -0.0012648525623047  0.5085462836531452 -0.0067504840979175
  0.2512648525623047  0.7414537163468548 -0.0067504840979175
 -0.0012648525623047  0.7414537163468548  0.2567504840979175
  0.2512648525623047  0.5085462836531452  0.2567504840979175
  0.5054359381816972 -0.0038082837123179 -0.0028410747586870
  0.7445640618183028  0.2538082837123180 -0.0028410747586870
  0.5054359381816972  0.2538082837123180  0.2528410747586869
  0.7445640618183028 -0.0038082837123179  0.2528410747586869
  0.4993243416557456  0.5031095291738777 -0.0094564554108050
  0.7506756583442542  0.7468904708261223 -0.0094564554108050
  0.4993243416557456  0.7468904708261223  0.2594564554108053
  0.7506756583442542  0.5031095291738777  0.2594564554108053
 -0.0077078782317477 -0.0075910623196815  0.0059952959045703
  0.2577078782317478  0.2575910623196815  0.0059952959045703
 -0.0077078782317477  0.2575910623196815  0.2440047040954296
  0.2577078782317478 -0.0075910623196815  0.2440047040954296
  0.5026174267130716  0.5031594925452986  0.5048368663593008
  0.7473825732869284  0.7468405074547014  0.5048368663593008
  0.5026174267130716  0.7468405074547014  0.7451631336406992
  0.7473825732869284  0.5031594925452986  0.7451631336406992
  0.5058157012509403 -0.0023126957511525  0.5038324586153783
  0.7441842987490596  0.2523126957511525  0.5038324586153783
  0.5058157012509403  0.2523126957511525  0.7461675413846217
  0.7441842987490596 -0.0023126957511525  0.7461675413846217
 -0.0050927752842855 -0.0070754124794629  0.4971565984381400
  0.2550927752842855  0.2570754124794630  0.4971565984381400
 -0.0050927752842855  0.2570754124794630  0.7528434015618598
  0.2550927752842855 -0.0070754124794629  0.7528434015618598
 
  0.00000000E+00  0.00000000E+00  0.00000000E+00
  0.00000000E+00  0.00000000E+00  0.00000000E+00
  0.00000000E+00  0.00000000E+00  0.00000000E+00
  0.00000000E+00  0.00000000E+00  0.00000000E+00
  0.00000000E+00  0.00000000E+00  0.00000000E+00
  0.00000000E+00  0.00000000E+00  0.00000000E+00
  0.00000000E+00  0.00000000E+00  0.00000000E+00
  0.00000000E+00  0.00000000E+00  0.00000000E+00
  0.00000000E+00  0.00000000E+00  0.00000000E+00
  0.00000000E+00  0.00000000E+00  0.00000000E+00
  0.00000000E+00  0.00000000E+00  0.00000000E+00
  0.00000000E+00  0.00000000E+00  0.00000000E+00
  0.00000000E+00  0.00000000E+00  0.00000000E+00
  0.00000000E+00  0.00000000E+00  0.00000000E+00
  0.00000000E+00  0.00000000E+00  0.00000000E+00
  0.00000000E+00  0.00000000E+00  0.00000000E+00
  0.00000000E+00  0.00000000E+00  0.00000000E+00
  0.00000000E+00  0.00000000E+00  0.00000000E+00
  0.00000000E+00  0.00000000E+00  0.00000000E+00
  0.00000000E+00  0.00000000E+00  0.00000000E+00
  0.00000000E+00  0.00000000E+00  0.00000000E+00
  0.00000000E+00  0.00000000E+00  0.00000000E+00
  0.00000000E+00  0.00000000E+00  0.00000000E+00
  0.00000000E+00  0.00000000E+00  0.00000000E+00
  0.00000000E+00  0.00000000E+00  0.00000000E+00
  0.00000000E+00  0.00000000E+00  0.00000000E+00
  0.00000000E+00  0.00000000E+00  0.00000000E+00
  0.00000000E+00  0.00000000E+00  0.00000000E+00
  0.00000000E+00  0.00000000E+00  0.00000000E+00
  0.00000000E+00  0.00000000E+00  0.00000000E+00
  0.00000000E+00  0.00000000E+00  0.00000000E+00
  0.00000000E+00  0.00000000E+00  0.00000000E+00
