Ta1 Nb1 W1                              
   1.00000000000000     
     0.0000000000000000    2.3313372953436304    6.8983635492730384
     1.6225283195606275    0.0000000000000000    6.8983635492730384
     1.6225283195606275    2.3313372953436304    0.0000000000000000
   Ta   Nb   W 
     1     1     1
Direct
  0.6701848049298267  0.6701848049298267  0.3298151950701734
  0.9966704702285152  0.9966704702285152  0.0033295297714850
  0.3331477248416650  0.3331477248416650  0.6668522751583350
 
  0.00000000E+00  0.00000000E+00  0.00000000E+00
  0.00000000E+00  0.00000000E+00  0.00000000E+00
  0.00000000E+00  0.00000000E+00  0.00000000E+00
