Al3 Ni3 Cu6 Nb12 
1.0
9.7979993266230601e+00 0.0000000000000000e+00 0.0000000000000000e+00 
2.5978755506884529e-05 6.0702650626837675e+00 0.0000000000000000e+00 
3.2254463166854452e-05 3.5412104529184973e-02 6.1884415053376847e+00 
Al Ni Cu Nb 
3 3 6 12 
Cartesian
   3.2660243181    3.0810311832    2.8188103519
   9.7980271352    3.0810311832    2.8188103519
   6.5320306256    3.0810311832    2.8188103519
   1.6330306887    4.5389961252    1.5632683971
   4.8990271983    4.5389961252    1.5632683971
   8.1650237078    4.5389961252    1.5632683971
   1.6330179649    1.6110093688    1.5260572983
   4.8990144744    1.6110093688    1.5260572983
   0.0000141153    3.0433928744    0.2002678686
   3.2660105732    3.0433928744    0.2002678686
   8.1650109840    1.6110093688    1.5260572983
   6.5320168807    3.0433928744    0.2002678686
   1.6330342701    1.6145918985    4.6662396061
   3.2660383208    6.0661691471    3.0553944707
   3.2660226356    6.0309138136    0.0608644361
   1.6330465390    4.4714511382    4.6744207257
   4.8990307797    1.6145919340    4.6662457945
   0.0000261570    6.0309138140    0.0608644980
   4.8990430485    4.4714511382    4.6744207257
   0.0000418627    6.0661691471    3.0553944707
   8.1650272892    1.6145919340    4.6662457945
   6.5320446283    6.0661691471    3.0553944707
   6.5320289432    6.0309138136    0.0608644361
   8.1650395580    4.4714511382    4.6744207257
