Zr10 Al8
1.0
   8.4393957999999998    0.0000010200000000   -0.0000000000000000
  -4.2196973900000003    7.3087310199999997   -0.0000000000000000
  -0.0000000000000000    0.0000000000000000    5.7912609200000000
Zr Al
10 8
direct
   0.2911217000000000    0.2911217000000000    0.7500000000000000 Zr
   0.9999990000000000    0.7088783000000000    0.7500000000000000 Zr
   0.0000010000000000    0.2911217000000000    0.2500000000000000 Zr
   0.7088793000000000    0.9999990000000000    0.7500000000000000 Zr
   0.3333330000000000    0.6666660000000000    0.5000000000000000 Zr
   0.7088783000000000    0.7088783000000000    0.2500000000000000 Zr
   0.2911207000000000    0.0000010000000000    0.2500000000000000 Zr
   0.6666670000000000    0.3333339999999990    0.5000000000000000 Zr
   0.6666670000000000    0.3333339999999990   -0.0000000000000000 Zr
   0.3333330000000000    0.6666660000000000   -0.0000000000000000 Zr
   0.0000000000000000    0.6306180400000000    0.2500000000000000 Al
   0.3693819600000000    0.3693819600000000    0.2500000000000000 Al
   0.6306180400000000    0.0000000000000000    0.2500000000000000 Al
  -0.0000000000000000   -0.0000000000000000   -0.0000000000000000 Al
   0.3693819600000000   -0.0000000000000000    0.7500000000000000 Al
   0.6306180400000000    0.6306180400000000    0.7500000000000000 Al
  -0.0000000000000000   -0.0000000000000000    0.5000000000000000 Al
  -0.0000000000000000    0.3693819600000000    0.7500000000000000 Al
