Al18 Nb3 Ta3 
1.0
1.1581244288493911e+01 0.0000000000000000e+00 0.0000000000000000e+00 
-1.2208590028088101e-04 5.8409585303629212e+00 0.0000000000000000e+00 
-1.8642089458848361e-04 2.8922692378881343e-01 5.8337441977107085e+00 
Al Nb Ta 
18 3 3 
Cartesian
   1.9300409354    1.6563935829    4.3883524003
   3.8602249515    0.3032034062    5.8090966285
   3.8601956049    5.9854720611    2.9169771063
   1.9301341260    1.5334846062    1.4574501467
   1.9300726617    4.4410255513    1.4798225557
   3.8602566183    3.0890182084    2.9016926965
  11.5810583376    0.3032034062    5.8090966285
   5.7904518378    1.6563935829    4.3883524003
  -0.0002152619    5.9854720611    2.9169771063
   5.7904835642    4.4410255513    1.4798225557
   5.7905450284    1.5334846062    1.4574501467
  11.5810900044    3.0890182084    2.9016926965
   9.6508627402    1.6563935829    4.3883524003
   7.7206474351    0.3032034062    5.8090966285
   7.7206180886    5.9854720611    2.9169771063
   9.6509559308    1.5334846062    1.4574501467
   9.6508944666    4.4410255513    1.4798225557
   7.7206791019    3.0890182084    2.9016926965
   3.8603496414    2.9016700795    0.0197663588
  11.5811830275    2.9016700795    0.0197663588
   7.7207721251    2.9016700795    0.0197663588
   1.9299800105    4.6104802458    4.3618146980
   5.7903909130    4.6104802458    4.3618146980
   9.6508018154    4.6104802458    4.3618146980
