Al4 Cu16                                
   1.00000000000000     
     6.2435652700000004    0.0000000000000000    0.0000000000000000
     0.0000000000000000    6.2435652700000004    0.0000000000000000
     0.0000000000000000    0.0000000000000000    6.2435652700000004
   Al   Cu
     4    16
Direct
  0.4408904100000015  0.9408904100000015  0.5591095899999985
  0.9408904100000015  0.5591095899999985  0.4408904100000015
  0.5591095899999985  0.4408904100000015  0.9408904100000015
  0.0591095899999985  0.0591095899999985  0.0591095899999985
  0.8090787800000001  0.3090787800000001  0.1909212199999999
  0.3090787800000001  0.1909212199999999  0.8090787800000001
  0.1909212199999999  0.8090787800000001  0.3090787800000001
  0.6909212199999999  0.6909212199999999  0.6909212199999999
  0.0487556599999976  0.8748909500000011  0.6999647299999978
  0.3000352700000022  0.5487556599999976  0.6251090499999989
  0.3748909500000011  0.8000352700000022  0.9512443400000024
  0.5487556599999976  0.6251090499999989  0.3000352700000022
  0.8000352700000022  0.9512443400000024  0.3748909500000011
  0.8748909500000011  0.6999647299999978  0.0487556599999976
  0.9512443400000024  0.3748909500000011  0.8000352700000022
  0.6999647299999978  0.0487556599999976  0.8748909500000011
  0.6251090499999989  0.3000352700000022  0.5487556599999976
  0.4512443400000024  0.1251090499999989  0.1999647299999978
  0.1999647299999978  0.4512443400000024  0.1251090499999989
  0.1251090499999989  0.1999647299999978  0.4512443400000024
 
  0.00000000E+00  0.00000000E+00  0.00000000E+00
  0.00000000E+00  0.00000000E+00  0.00000000E+00
  0.00000000E+00  0.00000000E+00  0.00000000E+00
  0.00000000E+00  0.00000000E+00  0.00000000E+00
  0.00000000E+00  0.00000000E+00  0.00000000E+00
  0.00000000E+00  0.00000000E+00  0.00000000E+00
  0.00000000E+00  0.00000000E+00  0.00000000E+00
  0.00000000E+00  0.00000000E+00  0.00000000E+00
  0.00000000E+00  0.00000000E+00  0.00000000E+00
  0.00000000E+00  0.00000000E+00  0.00000000E+00
  0.00000000E+00  0.00000000E+00  0.00000000E+00
  0.00000000E+00  0.00000000E+00  0.00000000E+00
  0.00000000E+00  0.00000000E+00  0.00000000E+00
  0.00000000E+00  0.00000000E+00  0.00000000E+00
  0.00000000E+00  0.00000000E+00  0.00000000E+00
  0.00000000E+00  0.00000000E+00  0.00000000E+00
  0.00000000E+00  0.00000000E+00  0.00000000E+00
  0.00000000E+00  0.00000000E+00  0.00000000E+00
  0.00000000E+00  0.00000000E+00  0.00000000E+00
  0.00000000E+00  0.00000000E+00  0.00000000E+00
