Zr2 Al1 Cu2
1.0
   2.1313399999999998    7.2344840000000001   -0.3349640000000000
  -2.1313399999999998    7.2344840000000001   -0.3349640000000000
   0.0000000000000000    1.4154860000000000    2.6940360000000001
Zr Al Cu
2 1 2
direct
   0.6206560000000000    0.6206560000000000    0.2588540000000000 Zr
   0.3793439999999990    0.3793439999999990    0.7411460000000000 Zr
   0.0000000000000000    0.0000000000000000    0.0000000000000000 Al
   0.1969780000000000    0.1969780000000000    0.6062040000000000 Cu
   0.8030220000000000    0.8030220000000000    0.3937960000000000 Cu
