Nb1 Ta1 W1 
1.0
7.2426198531433332e+00 0.0000000000000000e+00 0.0000000000000000e+00 
6.4977087171081465e+00 2.7336851588495197e+00 0.0000000000000000e+00 
7.4491113603100723e-01 -8.0748019310699237e-01 2.6117063934146669e+00 
Nb Ta W 
1 1 1 
Cartesian
  13.6811997561    2.7175724931    0.0118844394
   9.4598719849    1.5672890329    0.8602490753
   5.0845488523    0.3750423999    1.7395636072
