Al3 Ni3 Zr12 Nb6 
1.0
1.0241867306578433e+01 0.0000000000000000e+00 0.0000000000000000e+00 
4.8319074190346692e-06 6.7125303005822587e+00 0.0000000000000000e+00 
-6.9907203166956125e-06 -3.4381762498708938e-02 6.7124375166006045e+00 
Al Ni Zr Nb 
3 3 12 6 
Cartesian
   1.7069832493    4.7947650580    1.4458858908
   5.1209356042    4.7947650580    1.4458858908
   8.5348879591    4.7947650580    1.4458858908
  -0.0000044260    3.3169549142    6.7074837377
   3.4139477817    3.3169549142    6.7074837377
   6.8279103785    3.3169549142    6.7074837377
   1.7069772357    1.7376796353    5.1200996640
   1.7069794212    4.9441668306    5.2382922638
   3.4139537367    6.5552852882    3.2154455187
   1.7069809715    1.8738288160    1.6147104068
   0.0000013994    6.5552852882    3.2154455187
   5.1209333264    1.8738288160    1.6147104068
   5.1209295906    1.7376796353    5.1200996640
   8.5348819455    1.7376796353    5.1200996640
   5.1209317761    4.9441668306    5.2382922638
   8.5348841310    4.9441668306    5.2382922638
   6.8279163335    6.5552852882    3.2154455187
   8.5348856813    1.8738288160    1.6147104068
  10.2418664037    3.5291408772    3.3179578645
   3.4139514520    3.5291408772    3.3179578645
   3.4139569615    6.6732963519    0.1898686788
   0.0000047051    6.6732963519    0.1898686788
   6.8279140488    3.5291408772    3.3179578645
   6.8279195583    6.6732963519    0.1898686788
