bcc_Al6_Cu0_Nb0_Ni6_Ta0_W3_Zr9          
   1.00000000000000     
    10.3021394699562485    0.0000000000000000    0.0000000000000000
     0.0000000000000000    5.9872121950930000    0.0000000000000000
     0.0000000000000000    0.0000000000000000    6.7542732571120965
   Al   Ni   W    Zr
     6     6     3     9
Direct
  0.0000000000000000  0.0039375138109316  0.0544643328826577
  0.3333333333333357  0.0039375138109316  0.0544643328826577
  0.6666666666666643  0.0039375138109316  0.0544643328826577
  0.0000000000000000  0.0039375138109316  0.4455356671173420
  0.3333333333333357  0.0039375138109316  0.4455356671173420
  0.6666666666666643  0.0039375138109316  0.4455356671173420
  0.1666666666666643  0.7718130995338874  0.2500000000000000
  0.5000000000000000  0.7718130995338874  0.2500000000000000
  0.8333333333333357  0.7718130995338874  0.2500000000000000
  0.1666666666666643  0.7437097104765078  0.7500000000000000
  0.5000000000000000  0.7437097104765077  0.7500000000000000
  0.8333333333333357  0.7437097104765077  0.7500000000000000
  0.1666666666666643  0.2659680435810301  0.2500000000000000
  0.5000000000000000  0.2659680435810301  0.2500000000000000
  0.8333333333333357  0.2659680435810301  0.2500000000000000
  0.0000000000000000  0.5164814767983413  0.0000538341458046
  0.3333333333333357  0.5164814767983412  0.0000538341458046
  0.6666666666666643  0.5164814767983412  0.0000538341458046
  0.0000000000000000  0.5164814767983413  0.4999461658541956
  0.3333333333333357  0.5164814767983412  0.4999461658541956
  0.6666666666666643  0.5164814767983412  0.4999461658541956
  0.1666666666666643  0.1776711651900291  0.7500000000000000
  0.5000000000000000  0.1776711651900291  0.7500000000000000
  0.8333333333333357  0.1776711651900291  0.7500000000000000
 
  0.00000000E+00  0.00000000E+00  0.00000000E+00
  0.00000000E+00  0.00000000E+00  0.00000000E+00
  0.00000000E+00  0.00000000E+00  0.00000000E+00
  0.00000000E+00  0.00000000E+00  0.00000000E+00
  0.00000000E+00  0.00000000E+00  0.00000000E+00
  0.00000000E+00  0.00000000E+00  0.00000000E+00
  0.00000000E+00  0.00000000E+00  0.00000000E+00
  0.00000000E+00  0.00000000E+00  0.00000000E+00
  0.00000000E+00  0.00000000E+00  0.00000000E+00
  0.00000000E+00  0.00000000E+00  0.00000000E+00
  0.00000000E+00  0.00000000E+00  0.00000000E+00
  0.00000000E+00  0.00000000E+00  0.00000000E+00
  0.00000000E+00  0.00000000E+00  0.00000000E+00
  0.00000000E+00  0.00000000E+00  0.00000000E+00
  0.00000000E+00  0.00000000E+00  0.00000000E+00
  0.00000000E+00  0.00000000E+00  0.00000000E+00
  0.00000000E+00  0.00000000E+00  0.00000000E+00
  0.00000000E+00  0.00000000E+00  0.00000000E+00
  0.00000000E+00  0.00000000E+00  0.00000000E+00
  0.00000000E+00  0.00000000E+00  0.00000000E+00
  0.00000000E+00  0.00000000E+00  0.00000000E+00
  0.00000000E+00  0.00000000E+00  0.00000000E+00
  0.00000000E+00  0.00000000E+00  0.00000000E+00
  0.00000000E+00  0.00000000E+00  0.00000000E+00
