Converted from final.data
1.0
15.6417304830905728 0.0000000000000000 0.0000000000000000
0.1750425819318341 16.3159701820905525 0.0000000000000000
0.5226588298905130 -0.0166576841533158 31.8738892337770139
Al W Ni Zr Ta
12 24 7 11 7
Direct
0.4691377422102460 0.4751870904224851 0.2089102342181534
0.3943992709835436 0.4700980200385939 0.1051175396214361
0.3339309756412625 0.2996079479997557 0.0077068151766608
0.4180929779996403 0.1063200727971928 0.3772406493516282
0.0293837311052253 0.1293907430416473 0.4821606552719256
0.3114808957878993 0.3819192563549000 0.3333720227037534
0.0733452277419180 0.1121676633499964 0.1840095373429989
0.0523103886014613 0.3364614167858095 0.1889184294963728
0.2131148287351929 0.1472073178234256 0.2235197447676235
0.2064184860616527 0.3119186245092573 0.2236717436147496
0.3045135666960519 0.4285875482506379 0.1778462011947948
0.2670301657895962 0.0078103659874837 0.3531199873204272
0.0355046598738462 0.4672307378300277 0.0549292810936857
0.0432101249971710 0.4647969109683948 0.1380302847145626
0.1512878747340196 0.9753439126748825 0.1922501777105505
0.2057626893628830 0.4764706994492049 0.1007734273892527
0.2232367780057706 0.2216483844747363 0.0772470636033723
0.0839584038632381 0.1375691966505628 0.1016728280926580
0.0663559658412417 0.3046562251685446 0.0959253090096828
0.0482497761154218 0.2390807837958313 0.0211430092370869
0.3344226426699074 0.4578711144639478 0.0276399589356984
0.4570929675490561 0.0373790761721509 0.0428821559357028
0.4176197279402783 0.0919509522212138 0.1357422282565248
0.1867458740310962 0.3625798008583295 0.0424378430991696
0.2434966351745910 0.1514349088689475 0.3937523260670253
0.3478737497514077 0.2709771346540248 0.3911898268411854
0.1284737776333930 0.4610023594995019 0.3404134135424756
0.1293979921061354 0.1158176107997005 0.3432067577420746
0.2550060546927601 0.8255217180291954 0.4589611580453722
0.4484097977523847 0.3211193839171569 0.4527169586637952
0.9339310660276530 0.9963412331504375 0.4801307264051684
0.9774399253235663 0.4756022229847960 0.2207174529194882
0.8901696261583809 0.4777553100193939 0.0923976703167212
0.6141054657848943 0.5059344642033101 0.0412371596265930
0.7724503676775475 0.2692994829268881 0.0384893421422962
0.9364596638141875 0.3543514220572831 0.0350823624694991
0.4882002171559461 0.2202820494274579 0.1907629874842274
0.0838460896959047 0.2260126340010246 0.2332759678001183
0.3098454643658198 0.0876425626512625 0.0712208265467155
0.3216662955467740 0.3442085352215606 0.0884280577376191
0.1505716804718758 0.2234348784675039 0.1624299133667273
0.9334994155533517 0.3485249520222301 0.1381234619289886
0.1846835629845914 0.3560102186045586 0.1417881696165215
0.3208311998873388 0.2477751986133336 0.1598755505330968
0.9082805123032913 0.3265571254343989 0.2544365453766821
0.9985671310279126 0.8235617734384990 0.3648451714870399
0.3933985624498568 0.1180279684040639 0.2247523440894060
0.2600234236055399 0.9637626357011211 0.2664919371761700
0.0284665475282811 -0.0008950768864565 0.4112406824846218
0.2983372909453525 0.1545653717006011 0.3043369079235040
0.3812180039987189 0.1356812697202564 0.4604330305564853
0.9380351742943777 0.0175836201708009 0.3247692232465311
0.2003832755688137 0.0177648072460491 0.4454506749409872
0.1710138518091418 0.2762992808384566 0.3164738716748999
0.4145633282002318 0.2036101518503944 0.0703388724034639
0.4845965387690727 0.3673671811457602 0.0546719713822516
0.1657937670634500 0.0837194841382391 0.0280014248681019
0.2381472795759978 0.0803136514842471 0.1405791392088936
0.3790648451025562 0.9584967104479869 0.4070263849916577
0.1980276854095877 0.3713121137659647 0.4024305702151509
0.5572367213208475 0.4570557498904636 0.1307374415906493
