Cu20 Zr14 
1.0
9.5754524597463568e+00 0.0000000000000000e+00 0.0000000000000000e+00 
2.1630705089443561e-10 7.7230530342198760e+00 0.0000000000000000e+00 
-3.4554666229537980e-10 1.5585972936651460e+00 7.5641471856093121e+00 
Cu Zr 
20 14 
Cartesian
   7.4366889737    0.4414206469    1.0401534436
   2.1387634860    1.1078352992    0.2224237480
   6.9264897158    2.5330776749    2.7447642685
   2.6489627439    3.1994923272    1.9270345729
   4.7924469277    4.0465729133    6.1241604859
   0.0047160059    3.7325678668    6.5094630152
   4.7830055319    4.2351649130    0.6250996106
   4.7924469278    1.4669408564    4.0218721869
   0.0047160059    1.1529396714    4.4071747162
   9.5707317618    4.5491707388    0.2398008633
   4.0014666772    1.6725870930    6.4033607227
   8.7891929073    3.5269262640    4.1279744795
   0.7862605099    4.7548118741    2.6212871298
   6.9264897157    5.0822458109    4.8222270364
   2.6489627439    5.7486604632    4.0044973408
   7.4366889737    7.1739028389    6.5268378613
   2.1387634859    7.8403174911    5.7091081657
   4.7830055319    6.8147957371    2.7273894224
   9.5707317618    7.1288007836    2.3420868931
   5.5739857824    6.6091547577    0.3459039123
   9.5754524597    2.1787189081    1.7755625255
   2.1320702445    2.9771184565    4.8026207669
   6.9197964743    2.2223918113    5.7287144352
   4.7877262298    4.1408690690    3.3746308047
   4.7877262299    1.4621940661    1.1916254910
   4.7877262298    6.8195440720    5.5576361183
   7.1815893448    7.7117969781    3.7312122671
   2.3938631147    5.2107663239    6.8001229350
   7.1815893446    4.6295691078    7.5132858599
   2.3938631150    8.2929941942    3.0180493422
   7.4433822151    5.3046196816    1.9466408424
   2.6556559853    6.0593463268    1.0205471741
   9.5754524596    8.7816942330    7.1567043975
   9.5754524597    6.1030192300    4.9736990838
