Ta1                                     
   1.00000000000000     
     2.7102300336740286    0.0000000010685750   -0.9582106168527239
    -1.3551145094643897    2.3471293527041879   -0.9582106168527226
     0.0000000010435968    0.0000000018075629    2.8746328864616455
   Ta
     1
Direct
  0.0000000000000000  0.0000000000000000  0.0000000000000000
 
  0.00000000E+00  0.00000000E+00  0.00000000E+00
