Ta1 Nb1
1.0
   1.6582681500000001   -2.3486085600000002    0.0000000000000000
   1.6582681500000001    2.3486085600000002    0.0000000000000000
   0.0000000000000000    0.0000000000000000    4.6773454000000001
Ta Nb
1 1
direct
   0.5000000000000000    0.5000000000000000    0.5000000000000000 Ta
  -0.0000000000000000    0.0000000000000000   -0.0000000000000000 Nb
