Al3 Cu3 Zr6 Ta3 W9 
1.0
9.8275568794276644e+00 0.0000000000000000e+00 0.0000000000000000e+00 
-2.5270769539710846e-04 6.6755035317329279e+00 0.0000000000000000e+00 
-9.4559923563719426e-05 -6.8408070219293057e-02 6.3071610305004357e+00 
Al Cu Zr Ta W 
3 3 6 3 9 
Cartesian
   1.6378498786    1.4526026075    1.5941097218
   4.9136988959    1.4526026075    1.5941097218
   8.1895479131    1.4526026075    1.5941097218
   3.2755536619    6.5380585977    3.1065795513
   9.8272615240    6.5380585977    3.1065795513
   6.5514125067    6.5380585977    3.1065795513
   1.6377976091    1.5508786487    4.7460251466
   3.2756713331    3.4325853266    3.0994083092
  -0.0001775814    3.4325853266    3.0994083092
   4.9136466264    1.5508786487    4.7460251466
   8.1894956437    1.5508786487    4.7460251466
   6.5515301779    3.4325853266    3.0994083092
   3.2757184655    3.4102043761    0.0944724422
   9.8274263277    3.4102043761    0.0944724422
   6.5515773104    3.4102043761    0.0944724422
   1.6376639922    5.0712460770    4.7687435406
   1.6377099144    5.1831396594    1.5123752220
   3.2755071262    6.4651634365    6.3069276655
   4.9135130095    5.0712460770    4.7687435406
   9.8272149884    6.4651634365    6.3069276655
   8.1893620268    5.0712460770    4.7687435406
   4.9135589317    5.1831396594    1.5123752220
   8.1894079490    5.1831396594    1.5123752220
   6.5513659711    6.4651634365    6.3069276655
