Nb3 Ni1
1.0
   0.0000000000000000    3.2053919999999998    3.2053919999999998
   3.2053919999999998    0.0000000000000000    3.2053919999999998
   3.2053919999999998    3.2053919999999998    0.0000000000000000
Nb Ni
3 1
direct
   0.5000000000000000    0.5000000000000000    0.5000000000000000 Nb
   0.7500000000000000    0.7500000000000000    0.7500000000000000 Nb
   0.2500000000000000    0.2500000000000000    0.2500000000000000 Nb
   0.0000000000000000    0.0000000000000000    0.0000000000000000 Ni
