Zr1 Al3
1.0
   4.0819598099999999    0.0000000000000000   -0.0000000000000000
   0.0000000000000000    4.0819598099999999    0.0000000000000000
  -0.0000000000000000    0.0000000000000000    4.0819598099999999
Zr Al
1 3
direct
  -0.0000000000000000    0.0000000000000000    0.0000000000000000 Zr
   0.0000000000000000    0.5000000000000000    0.5000000000000000 Al
   0.5000000000000000    0.0000000000000000    0.5000000000000000 Al
   0.5000000000000000    0.5000000000000000    0.0000000000000000 Al
