Nb1 W1                                  
   1.00000000000000     
    -1.6163706701839333   -1.6108538964926071    1.6108538964926071
    -1.6163706701839333    1.6108538964926071   -1.6108538964926071
     0.0000000000000000   -3.2524537544349550   -3.2524537544349550
   Nb   W 
     1     1
Direct
  0.0000000000000000  0.0000000000000000  0.0000000000000000
  0.5000000000000000  0.5000000000000000  0.5000000000000000
 
  0.00000000E+00  0.00000000E+00  0.00000000E+00
  0.00000000E+00  0.00000000E+00  0.00000000E+00
