Nb1                                     
   1.00000000000000     
     2.7004000394156402   -0.0000000011613029   -0.9547345347443524
    -1.3501995172953236    2.3386140110780307   -0.9547345347697801
    -0.0000000011341570    0.0000000079732952    2.8642046278172977
   Nb
     1
Direct
 -0.0000000000000000  0.0000000000000000  0.0000000000000000
 
  0.00000000E+00  0.00000000E+00  0.00000000E+00
