Ni6 Ta2 
1.0
4.2516679326026736e+00 0.0000000000000000e+00 0.0000000000000000e+00 
-2.6386675489319507e-16 4.4971370771484676e+00 0.0000000000000000e+00 
-1.6458162225084426e-16 -3.0681643708387333e-11 5.1136873531800129e+00 
Ni Ta 
6 2 
Cartesian
   3.1887509495    1.5173115641    1.2784218383
   1.0629169832    2.9798255130    3.8352655149
   1.0629169832    0.7029789765    2.5545578583
   3.1887509495    3.7941581006    2.5591243811
   1.0629169832    0.7029789765    0.0022826426
   3.1887509495    3.7941581006    5.1114015349
   1.0629169832    2.9705928906    1.2784218383
   3.1887509495    1.5265441865    3.8352655149
