Ta30 
1.0
5.3627495316791380e+00 0.0000000000000000e+00 0.0000000000000000e+00 
2.9394571439170504e-08 1.0249815013030512e+01 0.0000000000000000e+00 
-6.2296816552655354e-08 -1.7398363357882078e-07 1.0249789118081154e+01 
Ta 
30 
Cartesian
   4.0232258524    0.6850432697    2.4617226019
   4.0232258461    2.6631786100    4.4398499033
   1.3417867397    0.3590243482    1.3084470797
   1.3417867286    3.8164570403    4.7658751956
   1.3428378239    1.0673746673    4.0575225194
   5.3557886808    3.2651502895    1.8597524870
   2.6875687396    3.2650375416    1.8598652346
   1.3395236844    7.7880861803    0.6850415808
   1.3395236667    5.8099538477    2.6631719572
   4.0209628086    8.9413646216    0.3590224384
   4.0209627776    5.4839277122    3.8164474794
   4.0199116975    6.1922822246    1.0673720396
   0.0069621402    8.3900577722    3.2651420721
   2.6751807943    8.3899450242    3.2650293244
   1.3389927065    5.1249073325   10.2497891181
   1.3395236152    2.4617286588    9.5647444624
   1.3395236329    4.4398609913    7.5866171609
   4.0209627287    1.3084502174    9.8907697546
   4.0209627597    4.7658871269    6.4333416387
   4.0199116420    4.0575326145    9.1824170785
   0.0069625815    1.8597570668    6.9846470460
   2.6751807530    1.8598698148    6.9847597937
   4.0237567759   10.2498149260    5.1248945590
   4.0232258455    9.5647684944    7.7880665162
   4.0232258519    7.5866362290    5.8099392147
   1.3417867206    9.8907945908    8.9413420384
   1.3417867317    6.4333577987    5.4839139225
   1.3428378342    9.1824401717    6.1922665986
   5.3557886518    6.9846645495    8.3900366311
   2.6875687106    6.9847772975    8.3899238834
