Al4 Cu15                                
   1.00000000000000     
     3.6705841199498130   -0.0000000000000000    0.0000000000000000
     0.0000000000000000    3.6705841199498130    0.0000000000000000
     0.0000000000000000    0.0000000000000000   18.1179954499035887
   Al   Cu
     4    15
Direct
  0.0000000000000000  0.0000000000000000  0.1908205159215473
  0.0000000000000000 -0.0000000000000000  0.3970125308966616
 -0.0000000000000000  0.0000000000000000  0.6029874691033382
 -0.0000000000000000 -0.0000000000000000  0.8091794840784527
  0.5000000000000000  0.5000000000000000 -0.0000000000000000
  0.5000000000000000  0.5000000000000000  0.1910850159164192
  0.5000000000000000  0.5000000000000000  0.3968082104907034
  0.5000000000000000  0.5000000000000000  0.6031917895092965
  0.5000000000000000  0.5000000000000000  0.8089149840835810
  0.5000000000000000 -0.0000000000000000  0.0900640802046170
  0.5000000000000000 -0.0000000000000000  0.2937984285034299
  0.5000000000000000  0.0000000000000000  0.5000000000000000
  0.5000000000000000  0.0000000000000000  0.7062015714965775
  0.5000000000000000  0.0000000000000000  0.9099359197953828
 -0.0000000000000000  0.5000000000000000  0.0900640802046170
 -0.0000000000000000  0.5000000000000000  0.2937984285034299
  0.0000000000000000  0.5000000000000000  0.5000000000000000
  0.0000000000000000  0.5000000000000000  0.7062015714965775
  0.0000000000000000  0.5000000000000000  0.9099359197953828
 
  0.00000000E+00  0.00000000E+00  0.00000000E+00
  0.00000000E+00  0.00000000E+00  0.00000000E+00
  0.00000000E+00  0.00000000E+00  0.00000000E+00
  0.00000000E+00  0.00000000E+00  0.00000000E+00
  0.00000000E+00  0.00000000E+00  0.00000000E+00
  0.00000000E+00  0.00000000E+00  0.00000000E+00
  0.00000000E+00  0.00000000E+00  0.00000000E+00
  0.00000000E+00  0.00000000E+00  0.00000000E+00
  0.00000000E+00  0.00000000E+00  0.00000000E+00
  0.00000000E+00  0.00000000E+00  0.00000000E+00
  0.00000000E+00  0.00000000E+00  0.00000000E+00
  0.00000000E+00  0.00000000E+00  0.00000000E+00
  0.00000000E+00  0.00000000E+00  0.00000000E+00
  0.00000000E+00  0.00000000E+00  0.00000000E+00
  0.00000000E+00  0.00000000E+00  0.00000000E+00
  0.00000000E+00  0.00000000E+00  0.00000000E+00
  0.00000000E+00  0.00000000E+00  0.00000000E+00
  0.00000000E+00  0.00000000E+00  0.00000000E+00
  0.00000000E+00  0.00000000E+00  0.00000000E+00
