Al1 Cu3 
1.0
4.1366733497696497e+00 0.0000000000000000e+00 0.0000000000000000e+00 
2.0683455634480570e+00 3.5824666128789580e+00 0.0000000000000000e+00 
2.0683435944209703e+00 1.1941555549303366e+00 3.3775907669244898e+00 
Al Cu 
1 3 
Cartesian
   4.1361605075    0.0000360067    0.0000000000
   4.1366895272    2.3883110839    1.6887953835
   2.0683489003    1.1941555420    0.8443976917
   6.2050301541    3.5824666259    2.5331930752
