Ni6 Nb2 
1.0
4.2538907758739271e+00 0.0000000000000000e+00 0.0000000000000000e+00 
0.0000000000000000e+00 4.5214113639269611e+00 0.0000000000000000e+00 
0.0000000000000000e+00 0.0000000000000000e+00 5.1766272348289943e+00 
Ni Nb 
6 2 
Cartesian
   1.0634726940    1.4630111607    1.2941568087
   3.1904180819    3.0584002033    3.8824704261
   3.1904180819    0.7274815242    2.5886449216
   1.0634726940    3.7939298397    2.5879823133
   1.0634726940    3.7939298397    0.0003314993
   3.1904180819    0.7274815242    5.1762959307
   1.0634726940    1.5676953980    3.8824704261
   3.1904180819    2.9537159659    1.2941568087
