Al3 Nb15 W6 
1.0
9.8468203427199565e+00 0.0000000000000000e+00 0.0000000000000000e+00 
0.0000000000000000e+00 6.4144755553564972e+00 0.0000000000000000e+00 
0.0000000000000000e+00 0.0000000000000000e+00 6.5094084217064418e+00 
Al Nb W 
3 15 6 
Cartesian
   3.2822701653    0.0000000387    6.5094084217
   0.0000000777    6.4144755554    6.5094084217
   6.5645501774    0.0000000159    0.0000000264
   1.6411400061    4.7997211370    4.8196245801
   1.6411400061    4.7997211370    1.6897838416
   1.6411400061    1.6147544184    1.6897838416
   3.2822701653    3.2072377777    6.5094084217
   1.6411400061    1.6147544184    4.8196245801
   4.9234101714    4.7997211370    4.8196245801
   4.9234101714    4.7997211370    1.6897838416
   4.9234101714    1.6147544184    1.6897838416
   4.9234101714    1.6147544184    4.8196245801
   0.0000000454    3.2072377777    6.5094084217
   8.2056803367    4.7997211370    4.8196245801
   8.2056803367    4.7997211370    1.6897838416
   8.2056803367    1.6147544184    1.6897838416
   6.5645501774    3.2072377777    0.0000000138
   8.2056803367    1.6147544184    4.8196245801
   3.2822701653    0.0000000045    3.2547042109
   3.2822701653    3.2072377777    3.2547042109
   0.0000000588    0.0000000195    3.2547042109
   0.0000000563    3.2072377777    3.2547042109
   6.5645501774    6.4144755554    3.2547042109
   6.5645501774    3.2072377777    3.2547042109
