Al1 Cu2 Zr1 
1.0
4.4187196933962918e+00 0.0000000000000000e+00 0.0000000000000000e+00 
2.2093671154027961e+00 3.8267362593475780e+00 0.0000000000000000e+00 
2.2093762613228836e+00 1.2755836520510218e+00 3.6078966642981256e+00 
Al Cu Zr 
1 2 1 
Cartesian
   0.0006446103    0.0003072516    0.0000000018
   2.2094718168    1.2755799778    0.9019741661
   6.6282033519    3.8267399335    2.7059224982
   4.4188464218    2.5511599557    1.8039483321
