Al12 Ni4 
1.0
4.8748661388497139e+00 0.0000000000000000e+00 0.0000000000000000e+00 
2.7410128081785391e-11 6.5630054706251064e+00 0.0000000000000000e+00 
7.3740940648830985e-13 -3.5356296207262631e-10 7.4773824311664168e+00 
Al Ni 
12 4 
Cartesian
   4.4333202635    0.0482525944    1.8693456078
   1.7419895409    1.1214273076    3.3569110234
   1.7419895409    1.1214273078    0.3817779490
   4.1794226104    2.1600754273    4.1204714078
   0.6954435285    4.4029300429    3.3569110234
   3.1328765980    5.4415781625    7.0956022390
   0.6954435285    4.4029300431    0.3817779490
   3.1328765980    5.4415781627    4.1204714078
   4.1794226104    2.1600754272    7.0956022390
   2.8789789448    3.3297539514    1.8693456078
   0.4415478254    6.5147542541    5.6080368234
   1.9958871940    3.2332515188    5.6080368234
   2.1136834594    5.7071304901    1.8693456078
   0.3237505850    2.4256277548    1.8693456078
   2.7611826794    0.8558749802    5.6080368234
   4.5511165289    4.1373777155    5.6080368234
