POSCAR file written by OVITO Basic 3.9.4
1
7.5229619799 0.0 0.0
-0.4436590236 15.9153309392 0.0
-0.185245793 0.0797109318 7.0600381783
Al Cu W Nb Ta 
16 24 7 2 13 
Cartesian
0.0037238686 0.0645717343 0.0450699447
-0.0591003182 3.8134156922 0.0117655964
7.1390713007 3.783656624 3.4963937747
3.4939225947 3.823356624 7.0501537747
1.8318825947 1.906396624 0.0167098747
1.6943225947 1.880686624 3.4615537747
5.1721268016 5.6714975558 7.044602553
1.8487058686 0.0520317343 1.7633137747
1.7731225947 3.824746624 1.6915037747
5.4294225947 0.072722624 1.7367437747
5.4585525947 0.075114924 5.3627437747
7.2492725947 1.947626624 1.7614237747
7.1345925947 1.858556624 5.2974137747
3.6427025947 1.898366624 1.6869837747
3.5702125947 1.957856624 5.3710437747
3.4796525947 5.654276624 1.7486737747
3.4827200755 0.0988826661 7.027955353
1.6625883877 5.6382056922 0.0205555964
5.5086125947 1.907746624 0.0266405747
5.3620825947 1.928946624 3.5465637747
5.3272225947 5.697946624 3.5562437747
5.4645925947 3.784326624 1.7146437747
5.3374825947 3.809906624 5.3341337747
7.1108025947 5.659426624 5.2593537747
3.2695458624 7.5186676351 3.8478454785
2.6080103649 12.6644056351 3.4933853899
5.2125278357 11.9635056351 0.4716636313
3.4217717868 11.3970856351 2.2265420387
2.6091608434 12.1389756351 0.3076430613
0.8422642674 11.6601256351 5.4317564087
4.1343532895 8.1048716351 1.9233722938
5.2889880144 8.3315156351 3.9954961485
2.0665910408 13.8995056351 5.6835453685
3.8442565101 13.9395156351 0.2754720373
7.1151601445 9.2883656351 3.682689366
5.4266204819 8.0867496351 6.9075395768
7.227989954 8.1977336351 5.4384691731
1.2654848823 10.7604256351 3.5510568794
3.8027978257 8.5198456351 5.4143213095
2.1224358887 13.8129156351 1.6416472185
3.6321435161 9.6553756351 3.6772729289
0.2453141449 13.6052856351 3.8623663536
5.6305557504 10.1539656351 1.7848964052
3.4331211017 11.3676756351 5.2482909298
1.6377009508 8.9219656351 2.2985535205
0.7207447176 10.1271956351 0.5456336726
6.5869765053 7.6217896351 1.5408854089
1.6302925947 3.798116624 5.3332937747
3.3974425947 5.635366624 5.3129037747
3.4976925947 3.754906624 3.5353737747
1.5888325947 5.625516624 3.5029637747
1.7004458686 0.0799217343 5.2942837747
-0.1692561113 5.612286624 1.7664037747
1.5329348553 9.4128956351 5.368658433
-0.0310275758 12.2266456351 1.8267808394
5.879867549 10.3389656351 6.0535714333
6.2165327956 11.3291056351 3.7154995094
1.7216547867 8.0488756351 0.1852325865
5.1706027411 13.1110956351 2.7759436196
5.0163142472 13.2028356351 5.3108261588
3.2910940136 9.9941956351 0.3182126505
-0.0878739618 13.0992756351 6.7375398229
