Zr6 Nb3 Ta12 W3 
1.0
1.0077564996450757e+01 0.0000000000000000e+00 0.0000000000000000e+00 
0.0000000000000000e+00 4.7286452916241073e+00 0.0000000000000000e+00 
0.0000000000000000e+00 0.0000000000000000e+00 9.4482456704330016e+00 
Zr Nb Ta W 
6 3 12 3 
Cartesian
   4.9651759635    0.3945137139    2.4618254436
   1.6795975253    2.7585781756    4.6741321674
   8.4715740059    0.3945137139    2.4618254436
   3.3457918891    2.7580438387    7.1452830295
   0.0134000374    2.7580438387    7.1452830295
   6.7183800235    0.3935831165    9.3573818918
   5.0072699525    2.7579729090    0.0490234509
   6.7183800235    2.7589517386    2.3460844342
   8.4294800169    2.7579729090    0.0490234509
   0.0311024896    2.7586774772    2.2937033602
   1.6795975253    2.7578688789    0.1028706092
   3.3280856074    2.7586774772    2.2937033602
   1.6795975253    0.3941656856    2.4460090804
   5.0074311935    2.7588098793    4.6999542228
   8.4293288535    2.7588098793    4.6999542228
   0.0666278210    0.3936162170    9.3761933490
   3.2925621908    0.3936157441    9.3761933490
   5.0259336029    0.3937973241    6.9556189459
   6.7183800235    2.7582329845    7.0658988694
   6.7183800235    0.3946361858    4.8127190349
   8.4108163666    0.3937973241    6.9556189459
   1.6795975253    0.3937571306    6.9719738592
   3.3445624262    0.3942734987    4.8193328068
   0.0146229499    0.3942730258    4.8193328068
