Cu2 
1.0
2.5673869357233619e+00 0.0000000000000000e+00 0.0000000000000000e+00 
-1.2836934677078540e+00 2.2234223077502691e+00 0.0000000000000000e+00 
-1.9366561178000695e-16 7.0413059716386366e-16 4.2007274040958880e+00 
Cu 
2 
Cartesian
   0.0000000001    1.4822845031    1.0501860518
   1.2836947516    0.7411444750    3.1505497538
