Al6 Ni9 Nb6 Ta3 
1.0
1.1396059292073165e+01 0.0000000000000000e+00 0.0000000000000000e+00 
1.0695975641716656e-04 5.5277001787422559e+00 0.0000000000000000e+00 
2.5215763334772998e-04 -2.8862355986491967e-01 5.5501652014790182e+00 
Al Ni Nb Ta 
6 9 6 3 
Cartesian
   3.7988616776    2.6006552359    2.7719023561
   1.8994253145    1.1142939968    1.2218078173
   5.6981079465    1.1142939968    1.2218078173
  11.3962383377    2.6006552359    2.7719023561
   7.5975557057    2.6006552359    2.7719023561
   9.4967905785    1.1142939968    1.2218078173
   1.8994896934    3.9648230343    1.4203871780
   1.8995642580    1.2600532906    4.1530498661
   3.7986861455    0.0829033588    0.0411151243
   5.6981723254    3.9648230343    1.4203871780
   0.0000035798    0.0829033530    0.0411152353
   5.6982468900    1.2600532906    4.1530498661
   9.4968549574    3.9648230343    1.4203871780
   9.4969295220    1.2600532906    4.1530498661
   7.5973801736    0.0829028060    0.0411151243
   3.7989148719    5.3632106738    2.7662911391
   1.8996250138    4.0930949827    4.2808979216
   0.0002325691    5.3632106738    2.7662911391
   5.6983076458    4.0930949827    4.2808979216
   7.5976088999    5.3632106738    2.7662911391
   9.4969902778    4.0930949827    4.2808979216
   0.0003056312    2.4772746680    5.5452200043
   3.7989880795    2.4772746680    5.5452200043
   7.5976821076    2.4772746680    5.5452200043
