Nb8 Ta8 W16 
1.0
9.1298095758870215e+00 0.0000000000000000e+00 0.0000000000000000e+00 
0.0000000000000000e+00 6.4467232881599781e+00 0.0000000000000000e+00 
0.0000000000000000e+00 0.0000000000000000e+00 9.1298780139119682e+00 
Nb Ta W 
8 8 16 
Cartesian
   4.6018896465    1.6293448438    2.3125981009
   6.8103723233    6.4290592664    2.3125981009
   2.3125807656    1.6293448438    4.6019241428
   2.3125807656    6.4290592664    6.8104233746
   9.0996812043    1.6293448438    6.8104233746
   6.8103723233    1.6293448438    9.0997494165
   9.0996812043    6.4290592664    4.6019241428
   4.6018896465    6.4290592664    9.0997494165
   2.3200489498    3.2459316223    2.3200663411
   2.3171182809    6.4242048837    2.3171356503
   9.0922130201    4.8124724879    2.3200663411
   9.0951436889    1.6341992265    2.3171356503
   2.3200489498    4.8124724879    9.0922811763
   2.3171182809    1.6341992265    9.0952118671
   9.0922130201    3.2459316223    9.0922811763
   9.0951436889    6.4242048837    9.0952118671
   4.6033869353    4.8154702142    2.3172725985
   6.8088750346    3.2429338960    2.3172725985
   2.3172552281    4.8154702142    4.6034214428
   2.3172552281    3.2429338960    6.8089260746
   4.6033869353    3.2429338960    9.0950749189
   4.5966491358    3.2427533877    4.5966835928
   9.0950067418    3.2429338960    4.6034214428
   6.8088750346    4.8154702142    9.0950749189
   6.8156128340    4.8156507225    4.5966835928
   4.5966491358    4.8156507225    6.8156639246
   9.0950067418    4.8154702142    6.8089260746
   6.8162062716    1.6308404837    4.5960901507
   4.5960556982    1.6308404837    6.8162573667
   6.8156128340    3.2427533877    6.8156639246
   4.5960556982    6.4275636265    4.5960901507
   6.8162062716    6.4275636265    6.8162573667
