Al2 Cu1 
1.0
4.1556576268808980e+00 0.0000000000000000e+00 0.0000000000000000e+00 
-2.0778827792991752e+00 3.5989598504362581e+00 0.0000000000000000e+00 
2.3820854628076491e-05 -2.3993647904507447e+00 3.3931055896779783e+00 
Al Cu 
2 1 
Cartesian
  -2.0774162663    1.1992135702    3.3931055897
  -0.0004139862    2.3992378667    1.6965527948
  -0.0000756078   -0.0000436676    2.5448291923
