Al1 Ni1 
1.0
2.8851100475868776e+00 0.0000000000000000e+00 0.0000000000000000e+00 
-3.9188245219887197e-17 2.8851100475868776e+00 0.0000000000000000e+00 
-6.7524360994267160e-17 -4.3408517782028893e-17 2.8851100475868776e+00 
Al Ni 
1 1 
Cartesian
   1.4425550238    1.4425550238    1.4425550238
   2.8851100476    2.8851100476    0.0000000000
