bcc_Al0_Cu9_Nb0_Ni3_Ta9_W3_Zr0          
   1.00000000000000     
     9.8094994670655193    0.0000000000000000    0.0000000000000000
     0.0000000000000000    5.9514100981005216    0.0000000000000000
     0.0000000000000000    0.0000000000000000    6.1378259629328857
   Cu   Ni   Ta   W 
     9     3     9     3
Direct
  0.1666666666666643  0.2501060428167967  0.2237357862362134
  0.5000000000000000  0.2501060428167967  0.2237357862362134
  0.8333333333333357  0.2501060428167967  0.2237357862362134
  0.1666666666666643  0.2501060428167967  0.7762642137637867
  0.5000000000000000  0.2501060428167967  0.7762642137637867
  0.8333333333333357  0.2501060428167967  0.7762642137637867
  0.0000000000000000  0.0219250740153982  0.0000000000000000
  0.3333333333333357  0.0219250740153982  0.0000000000000000
  0.6666666666666643  0.0219250740153982  0.0000000000000000
  0.0000000000000000  0.5029080682029804  0.0000000000000000
  0.3333333333333357  0.5029080682029804  0.0000000000000000
  0.6666666666666643  0.5029080682029804  0.0000000000000000
  0.1666666666666643  0.7513324101554391  0.2434532741919940
  0.5000000000000000  0.7513324101554391  0.2434532741919940
  0.8333333333333357  0.7513324101554391  0.2434532741919940
  0.1666666666666643  0.7513324101554391  0.7565467258080062
  0.5000000000000000  0.7513324101554391  0.7565467258080062
  0.8333333333333357  0.7513324101554391  0.7565467258080062
  0.0000000000000000  0.4730295302121471  0.5000000000000000
  0.3333333333333357  0.4730295302121471  0.5000000000000000
  0.6666666666666643  0.4730295302121471  0.5000000000000000
  0.0000000000000000 -0.0007395783749968  0.5000000000000000
  0.3333333333333357 -0.0007395783749968  0.5000000000000000
  0.6666666666666643 -0.0007395783749968  0.5000000000000000
 
  0.00000000E+00  0.00000000E+00  0.00000000E+00
  0.00000000E+00  0.00000000E+00  0.00000000E+00
  0.00000000E+00  0.00000000E+00  0.00000000E+00
  0.00000000E+00  0.00000000E+00  0.00000000E+00
  0.00000000E+00  0.00000000E+00  0.00000000E+00
  0.00000000E+00  0.00000000E+00  0.00000000E+00
  0.00000000E+00  0.00000000E+00  0.00000000E+00
  0.00000000E+00  0.00000000E+00  0.00000000E+00
  0.00000000E+00  0.00000000E+00  0.00000000E+00
  0.00000000E+00  0.00000000E+00  0.00000000E+00
  0.00000000E+00  0.00000000E+00  0.00000000E+00
  0.00000000E+00  0.00000000E+00  0.00000000E+00
  0.00000000E+00  0.00000000E+00  0.00000000E+00
  0.00000000E+00  0.00000000E+00  0.00000000E+00
  0.00000000E+00  0.00000000E+00  0.00000000E+00
  0.00000000E+00  0.00000000E+00  0.00000000E+00
  0.00000000E+00  0.00000000E+00  0.00000000E+00
  0.00000000E+00  0.00000000E+00  0.00000000E+00
  0.00000000E+00  0.00000000E+00  0.00000000E+00
  0.00000000E+00  0.00000000E+00  0.00000000E+00
  0.00000000E+00  0.00000000E+00  0.00000000E+00
  0.00000000E+00  0.00000000E+00  0.00000000E+00
  0.00000000E+00  0.00000000E+00  0.00000000E+00
  0.00000000E+00  0.00000000E+00  0.00000000E+00
