Converted from final.data
1.0
14.9217374114940071 0.0000000000000000 0.0000000000000000
-0.5590906034030652 33.3277038824468121 0.0000000000000000
-0.4062895569018176 -0.2506470897542503 15.0832694318665723
Al Nb W Ta Ni Cu
4 21 21 5 1 11
Direct
0.2671114757840455 0.4123789636939212 0.3736251464970543
0.8553911356352514 0.4882339397853626 0.1808226945292973
0.5369731326968444 0.1433513102527456 0.4884483841705455
0.8298535518570282 0.1185358819758421 0.8475430527600920
0.2100972072974203 0.4086263902905242 0.8833518834788144
0.2205163027948988 0.4447050687057105 0.2177897608228776
0.2569472992361940 0.3948332954458106 0.0599408479991521
0.2464408585685776 0.1923575175518031 0.3758834652428522
0.6062644177432545 0.2800980045025058 0.1424708616244492
0.1585781442908461 0.3462339639425337 0.4357065495336247
0.3225373785433275 0.4886453351241790 0.4420192882094904
0.3953606395666721 0.2935213889317551 0.2048405545525597
0.3922679748191876 0.3861012009086114 0.2392168294701884
0.0006112546261870 0.3601636570469910 0.2384724772817752
0.4122814221331902 0.4744212330261352 0.2721729258154876
0.2010320865936947 0.3172554783419136 0.9753222314023738
0.0663150217797287 0.1847428133970958 0.4049164858968079
0.1151659174007501 0.0370010096925403 0.3165373298020631
0.3201813200594743 0.2077893166388189 0.2094460487400024
0.2261334831458658 0.3531460824697411 0.2400566761285568
0.4002641531535889 0.1469497459530419 0.3392564173236489
0.5342712489515309 0.2150881833854342 0.2693636899923458
0.0890023554917343 0.0171450114196681 0.8857568964406060
0.3059188970096836 0.1281138265537748 0.1863418359327230
0.7330259186782767 0.4640996023850381 0.3935872765248769
0.5585305802154450 0.2439643548035692 0.9540787902206280
0.5496739395450536 0.3614285087220891 0.1839318582271575
0.1238495163193333 0.2154106524282511 0.2426573579745602
0.3848496605289082 0.2779642447420141 0.9600869597470243
0.1599219428208926 0.4807111602137803 0.3811628470929968
0.4422257137861185 0.3978479110023115 0.0592785357319706
0.2686922124806614 0.2404273567028253 0.0200949031961696
0.4651514715413951 0.0750290421121473 0.3921150095079977
0.4530843379812655 0.0861760282913741 0.2368519437170590
0.1978314547814880 0.0742603361489332 0.9092309030850291
0.1739145406704080 0.0691366543522558 0.1696371441684018
0.3343179393477391 0.1214160608352731 0.9422455582340966
0.2390371037242808 0.0990406349412650 0.0387554301022179
0.2461058525826086 0.0029137689625638 0.2119903071482725
0.1573189013637796 0.5260629232611383 0.5325268225515494
0.2043754423572507 0.2746772988879659 0.1511390811136793
0.4046460024615396 0.2451829978766535 0.3755195056118755
0.3884778231678709 0.5734021399298512 0.1541377555975062
0.3287276810145476 0.3223486908809524 0.0746897039737590
0.0063617415155085 0.0731569189377817 0.2042928470012218
0.1492086366194421 0.1370796415331063 0.2626750151288160
0.3679694134915987 0.4793703292087560 0.0970705805898459
0.2122301007436900 0.0127693631708139 0.0313228900461509
-0.0070563085195369 0.3105607898976702 0.9669418352289136
0.6887409635996178 0.1877265663356041 0.3995372191703044
0.7248712953956192 0.4208287640575976 0.2000974717654134
0.6235079635955637 0.1300960197174292 -0.0189335808151717
0.3239900531165891 0.4230857786033246 0.5373564167130942
0.0100313436439879 0.4673007189201149 0.4647351453714768
0.1041641901063502 0.3823834110653832 -0.0282357052846100
0.3437322018130065 0.1707022197913967 0.0470041300254102
0.1001692480012381 0.2967895901547248 0.2753866557492358
0.9800325275846102 0.0341545858984748 0.3901223143229987
0.1826397196829479 0.1805052982587825 0.0891147110285053
0.7236718059334875 0.0700557333538685 0.2787136774899368
0.2896773170311156 0.0710301586930494 0.3193174036777250
0.0659540755420309 0.1263898186013535 0.1118095032398412
0.3391031350162815 0.0445954002075546 0.9677597879092181
