Zr1                                     
   1.00000000000000     
     2.7717194870508806   -0.0000000002056800    1.6002525462072872
     0.9239071717033517    2.6132020921771324    1.6002525462050166
    -0.0000000191784560   -0.0000000094246431    3.2005071396384404
   Zr
     1
Direct
  0.0000000000000000  0.0000000000000000 -0.0000000000000000
 
  0.00000000E+00  0.00000000E+00  0.00000000E+00
