W1                                      
   1.00000000000000     
     2.6013496171449213    0.0000000020570869   -0.9197170688833262
    -1.3006748017805230    2.2528349623970936   -0.9197170689236956
    -0.0000000035135347   -0.0000000161845042    2.7591491767744252
   W 
     1
Direct
  0.0000000000000000  0.0000000000000000  0.0000000000000000
 
  0.00000000E+00  0.00000000E+00  0.00000000E+00
