Converted from final.data
1.0
15.1703907583618651 0.0000000000000000 0.0000000000000000
0.0892171820717616 34.7189776738808291 0.0000000000000000
-0.1494225436814866 -0.1683409361133612 14.9382929854467061
Al Zr W Ta Ni Cu
3 23 23 6 3 3
Direct
-0.0359309981224901 0.3529250502424385 0.2855989267050075
0.2123772115217557 0.1995271274085235 0.5200918110438033
0.9438349911616362 0.1060848497299369 0.2029202953958672
0.0996434839886064 0.4508099917663684 0.4634802411794001
0.2157756994618681 0.4681948660270858 0.2303457406200474
0.0821138453636503 0.3340025927503450 0.4467212065650722
0.1074688344947076 0.3033163590774265 0.2504141113732905
0.0126208386849668 0.3983632308359273 0.5954732944191228
0.2918537439079206 0.2663941658179936 0.2221846175915373
0.3801898362720397 0.5199937997704922 0.0618168444882735
0.0742349970881331 0.4729546392903153 0.0741037380739632
0.9722418639924760 0.1948443648743776 0.4865378772528854
0.0453248511317168 0.3686321765556668 0.1072594705182110
0.3882116085412660 0.3863893671824492 0.0470462587028122
0.2800202536073061 0.3358185377553606 0.3738256106409723
-0.0393318610344132 0.2675536754060995 0.3685114711273514
0.9815386864701944 0.4294026282366497 0.2013995015484077
0.2935160004861135 0.4296995696801441 0.3986709641283172
0.2116938495393264 0.4145911004314636 0.0614642995810896
0.1268775027906928 0.3979303311486629 0.2874487079187318
0.3364880086600983 -0.0488128104711349 0.3143157930085099
0.1975023152174565 0.0632685337128869 0.1768171564864404
0.9525063874957204 0.3387973486512626 0.5002945640385448
0.0313285856270703 0.4854184599472325 0.3090958994806713
0.9973989305958156 0.1089649554370285 0.3862410752774473
0.6786780153531047 0.2002444800126891 0.2666074291926654
0.2640642377964844 0.2282837621162153 0.0310175472084435
0.2287915068914390 0.3435278479479885 0.1528536066568376
0.1261112317671400 0.2745119977493053 0.0760189417533839
0.1953605516181111 0.1989908457239745 0.2149207137672917
0.1101698978161273 0.1879949366215483 0.0386217921855262
0.0037706859600391 0.0613053366171152 0.9777058115944971
0.1473472249855659 -0.0277637063118601 0.2224103437068757
0.0736116786968242 0.1264536039164863 0.5231136367970021
0.3656881329344795 0.0021040294939522 0.4576796539387976
0.3599618295327906 0.1164717908076544 0.9466550946213564
0.1524586334305841 0.0835252236269537 0.3276207873916948
0.3009999821100010 0.1944198684851928 0.3380698340342116
0.3140741611962766 0.0463497778503522 0.3303809361231870
0.5062167324402578 -0.0068317360360055 0.2841668257209453
0.4351067288360957 0.1234168027714534 0.0846407232029722
0.1796993046786772 0.0059257070965464 0.3611166076356470
0.2198644331703362 0.1417763456580366 0.3891679058867037
0.8997012256154494 0.3626097361149926 0.1367596425333725
0.4236114007842040 0.2546037221716154 0.0705609876719072
0.2954250954501459 0.3047656424851737 0.0252117161373165
0.8335161937668248 0.4750816612364425 -0.0249979691987474
0.3157092222103114 0.3942495829735738 0.2376834356830508
0.3545386372921866 0.0651223219948547 0.0898108476684243
0.1045107791167797 0.1398336495436043 0.2364712837654315
0.0750960982703613 0.1857212093985131 0.3947771703056079
0.3906892735226271 0.1941149772739728 0.1706259705168568
0.3675756729808293 0.2520574766491717 0.4622748201638521
0.1772401284581934 0.2539571915192966 0.3892594776874760
0.4398108083790506 -0.0167637002614943 0.0859666372456144
0.5301209994461212 0.3804941333427362 0.1468154663259890
0.6707561612332437 0.3841016550929972 0.3471239951472431
0.0079209272820627 -0.0107062463985391 0.1498773582747969
0.2931660500487970 0.0000824360313472 0.2081132257977775
0.3141868468975871 0.1170252189320936 0.1952708181314193
0.2202849297382622 -0.0092394559870378 0.0464876703798826
