Zr6 Ta9 W9 
1.0
9.9215716097241575e+00 0.0000000000000000e+00 0.0000000000000000e+00 
-1.9994593854054340e-05 4.6309377661335667e+00 0.0000000000000000e+00 
1.6891184146944781e-05 -2.0239137914559256e-06 9.3929844202252859e+00 
Zr Ta W 
6 9 9 
Cartesian
   3.4265165678    2.7016468943    2.4132643432
   1.6536709903    0.3862353999    2.5754811842
   9.8023466805    2.7015820612    2.4131891993
   3.3832314305    0.3863830502    9.3790264454
   1.6535438786    2.7023863873    9.1756589397
   9.8454784316    0.3863899966    9.3789606945
   6.6143910547    0.3855116032    4.6371097626
   6.6144166663    2.7007994422    2.3693239621
   4.9174552468    2.7010953014    4.7865145728
   4.9432355384    0.3855907472    6.9956505786
   5.0628937309    2.7011591654    9.2839788360
   8.1658354870    2.7011684273    9.2839224781
   8.3113272471    2.7011230870    4.7864394289
   6.6143555199    2.7009605299    6.9877792576
   8.2854856015    0.3856282578    6.9955660417
   5.0288107467    0.3857362231    2.3980477085
   8.2000327590    0.3856903768    2.3980477085
   6.6143629439    0.3853732027    0.0392438889
   3.2962704767    0.3859714284    4.7624027818
   1.6536055030    2.7017621488    4.8218885521
   1.6535696862    0.3863363419    6.9316561757
   3.2800029810    2.7014653074    6.9631978174
   0.0271242516    2.7015069858    6.9631320665
   0.0109636858    0.3859982878    4.7623182449
