Zr2 Cu4                                 
   1.00000000000000     
     2.3558522672725948   -4.2797334539795404   -0.0000000000000000
     2.3558522672725948    4.2797334539795404   -0.0000000000000000
    -0.0000000000000000    0.0000000000000000    4.6452823995548185
   Zr   Cu
     2     4
Direct
  0.2334636963989543  0.2334636963989543  0.7500000000000000
  0.7665363036010457  0.7665363036010457  0.2500000000000000
  0.5345411662753969  0.8953581897250701  0.7500000000000000
  0.8953581897250701  0.5345411662753969  0.7500000000000000
  0.1046418102749298  0.4654588337246030  0.2500000000000000
  0.4654588337246030  0.1046418102749298  0.2500000000000000
 
  0.00000000E+00  0.00000000E+00  0.00000000E+00
  0.00000000E+00  0.00000000E+00  0.00000000E+00
  0.00000000E+00  0.00000000E+00  0.00000000E+00
  0.00000000E+00  0.00000000E+00  0.00000000E+00
  0.00000000E+00  0.00000000E+00  0.00000000E+00
  0.00000000E+00  0.00000000E+00  0.00000000E+00
