Al3 Ni3 Cu9 Ta9 
1.0
8.5276337239987381e+00 0.0000000000000000e+00 0.0000000000000000e+00 
8.1693925284039443e-05 4.4015501933601708e+00 0.0000000000000000e+00 
4.6630609750202229e-04 1.6388046523517377e+00 9.4825579434784792e+00 
Al Ni Cu Ta 
3 3 9 9 
Cartesian
   3.0393252991    4.7164969936    4.7717748781
   1.4216694844    2.5263927518    7.5589072739
   8.3314639294    4.7164986324    4.7717843606
   4.3125773661    2.5371783589    3.9734572899
   7.0580660988    2.5371783589    3.9734572899
   5.6855373717    4.6126465619    7.8265714370
   1.4214890149    4.7017476295    2.7545408442
   2.8866552456    0.7880019944    0.0542553087
   0.2009223375    2.4925752158    2.2630029707
   1.4213407527    3.0588372876    0.1925281669
   2.6419174107    2.4925735770    2.2629934881
   4.0835510689    2.9521312882    0.2890075045
   8.4835629772    0.7880063796    0.0542552139
   5.6852296917    2.5474373053    1.9670144070
   7.2867605418    2.9521312882    0.2890075045
   4.2918823749    4.7668841909    2.3653956313
   7.0786874930    4.7668841909    2.3653956313
   1.4215447169    2.5164693085    4.8486594579
   2.9726860578    4.7222336612    7.4583826772
   4.2058219341    2.5071988221    6.4410748959
   5.6855491140    2.3591710381    9.1774187114
   5.6854217492    4.7216526333    5.2672480132
   8.3983503765    4.7222336612    7.4583826772
   7.1650387508    2.5071988221    6.4410748959
