Al2 Ni6                                 
   1.00000000000000     
     2.5045891500000002   -4.3379252600000004    0.0000000000000000
     2.5045941300000001    4.3379278200000000    0.0000000000000000
     0.0000000000000000    0.0000000000000000    4.0402563799999998
   Al   Ni
     2     6
Direct
  0.3333328300000034  0.6666677600000028  0.7500000000000000
  0.6666686399999975  0.3333332600000034  0.2500000000000000
  0.1642856400000028  0.3285235700000015  0.2500000000000000
  0.6714738499999982  0.8357165800000033  0.2500000000000000
  0.1642547900000011  0.8357510399999981  0.2500000000000000
  0.8357121199999966  0.6714742300000012  0.7500000000000000
  0.3285315199999985  0.1642852700000006  0.7500000000000000
  0.8357416099999995  0.1642482900000033  0.7500000000000000
 
  0.00000000E+00  0.00000000E+00  0.00000000E+00
  0.00000000E+00  0.00000000E+00  0.00000000E+00
  0.00000000E+00  0.00000000E+00  0.00000000E+00
  0.00000000E+00  0.00000000E+00  0.00000000E+00
  0.00000000E+00  0.00000000E+00  0.00000000E+00
  0.00000000E+00  0.00000000E+00  0.00000000E+00
  0.00000000E+00  0.00000000E+00  0.00000000E+00
  0.00000000E+00  0.00000000E+00  0.00000000E+00
