Cu1 Zr1 
1.0
3.2708159450598551e+00 0.0000000000000000e+00 0.0000000000000000e+00 
2.9740197678556970e-17 3.2708159450598551e+00 0.0000000000000000e+00 
-2.9740197678556968e-18 0.0000000000000000e+00 3.2708159450598551e+00 
Cu Zr 
1 1 
Cartesian
   0.0000000000    0.0000000000    0.0000000000
   1.6354079725    1.6354079725    1.6354079725
