Ta30                                    
   1.00000000000000     
     5.3406344226877582   -0.0000000000000000    0.0000000000000000
    -0.0000000000000000   10.2439524142883567    0.0000000000000000
     0.0000000000000000    0.0000000000000000   10.2439524142883567
   Ta
    30
Direct
  0.2427877858019267  0.5000000000000000  0.0000000000000000
  0.7572122141980733 -0.0000000000000000  0.5000000000000000
  0.2436041136442989  0.7612329152457715  0.0674563643271280
  0.7563958863557010  0.0674563643271280  0.2387670847542284
  0.7563958863557010  0.9325436356728719  0.7612329152457715
  0.2436041136442989  0.2387670847542284  0.9325436356728719
  0.7563958863557010  0.2612329152457716  0.4325436356728720
  0.7563958863557010  0.7387670847542285  0.5674563643271281
  0.2436041136442989  0.4325436356728720  0.7387670847542285
  0.2436041136442989  0.5674563643271281  0.2612329152457716
  0.2566916720567008  0.0347923918070842  0.1287874571110939
  0.7433083279432992  0.1287874571110939  0.9652076081929158
  0.7433083279432992  0.8712125428889061  0.0347923918070842
  0.2566916720567008  0.9652076081929158  0.8712125428889061
  0.7433083279432992  0.5347923918070842  0.3712125428889061
  0.7433083279432992  0.4652076081929157  0.6287874571110939
  0.2566916720567008  0.3712125428889061  0.4652076081929157
  0.2566916720567008  0.6287874571110939  0.5347923918070842
  0.7408283388619966  0.6049280308444089  0.1049280308444089
  0.2591716611380034  0.1049280308444089  0.3950719691555912
  0.2591716611380034  0.8950719691555911  0.6049280308444089
  0.7408283388619966  0.3950719691555912  0.8950719691555911
  0.0022890252585469  0.8189607710522705  0.3189607710522708
  0.9977109747414532  0.3189607710522708  0.1810392289477293
  0.9977109747414532  0.6810392289477295  0.8189607710522705
  0.0022890252585469  0.1810392289477293  0.6810392289477295
  0.4991119632202318  0.3187589919774442  0.1812410080225558
  0.5008880367797681  0.1812410080225558  0.6812410080225558
  0.5008880367797681  0.8187589919774442  0.3187589919774442
  0.4991119632202318  0.6812410080225558  0.8187589919774442
 
  0.00000000E+00  0.00000000E+00  0.00000000E+00
  0.00000000E+00  0.00000000E+00  0.00000000E+00
  0.00000000E+00  0.00000000E+00  0.00000000E+00
  0.00000000E+00  0.00000000E+00  0.00000000E+00
  0.00000000E+00  0.00000000E+00  0.00000000E+00
  0.00000000E+00  0.00000000E+00  0.00000000E+00
  0.00000000E+00  0.00000000E+00  0.00000000E+00
  0.00000000E+00  0.00000000E+00  0.00000000E+00
  0.00000000E+00  0.00000000E+00  0.00000000E+00
  0.00000000E+00  0.00000000E+00  0.00000000E+00
  0.00000000E+00  0.00000000E+00  0.00000000E+00
  0.00000000E+00  0.00000000E+00  0.00000000E+00
  0.00000000E+00  0.00000000E+00  0.00000000E+00
  0.00000000E+00  0.00000000E+00  0.00000000E+00
  0.00000000E+00  0.00000000E+00  0.00000000E+00
  0.00000000E+00  0.00000000E+00  0.00000000E+00
  0.00000000E+00  0.00000000E+00  0.00000000E+00
  0.00000000E+00  0.00000000E+00  0.00000000E+00
  0.00000000E+00  0.00000000E+00  0.00000000E+00
  0.00000000E+00  0.00000000E+00  0.00000000E+00
  0.00000000E+00  0.00000000E+00  0.00000000E+00
  0.00000000E+00  0.00000000E+00  0.00000000E+00
  0.00000000E+00  0.00000000E+00  0.00000000E+00
  0.00000000E+00  0.00000000E+00  0.00000000E+00
  0.00000000E+00  0.00000000E+00  0.00000000E+00
  0.00000000E+00  0.00000000E+00  0.00000000E+00
  0.00000000E+00  0.00000000E+00  0.00000000E+00
  0.00000000E+00  0.00000000E+00  0.00000000E+00
  0.00000000E+00  0.00000000E+00  0.00000000E+00
  0.00000000E+00  0.00000000E+00  0.00000000E+00
