fcc_Al8_Cu0_Nb0_Ni4_Ta12_W8_Zr0         
   1.00000000000000     
     8.7600301335753894    0.0000000000000000    0.0000000000000000
     0.0000000000000000    8.7211394384658032    0.0000000000000000
     0.0000000000000000    0.0000000000000000    6.7501656059778137
   Al   Ni   Ta   W 
     8     4    12     8
Direct
  0.0074631293492106  0.5100122924980626  0.4743635620433549
  0.2425368706507894  0.7399877075019374  0.4743635620433549
  0.0074631293492106  0.7399877075019374  0.7756364379566448
  0.2425368706507894  0.5100122924980626  0.7756364379566448
  0.4842665385005776  0.4935312555819538  0.0309404859193143
  0.7657334614994225  0.7564687444180462  0.0309404859193143
  0.4842665385005776  0.7564687444180462  0.2190595140806857
  0.7657334614994225  0.4935312555819538  0.2190595140806857
  0.0073403806574001  0.5048507935872338  0.0076658789140536
  0.2426596193425999  0.7451492064127662  0.0076658789140536
  0.0073403806574001  0.7451492064127662  0.2423341210859463
  0.2426596193425999  0.5048507935872338  0.2423341210859463
  0.4955103726349640 -0.0126636385171093  0.4975401916391921
  0.7544896273650360  0.2626636385171093  0.4975401916391921
  0.4955103726349640  0.2626636385171093  0.7524598083608076
  0.7544896273650360 -0.0126636385171093  0.7524598083608076
  0.4962579775715293  0.5129439560667028  0.4770717213916252
  0.7537420224284708  0.7370560439332972  0.4770717213916252
  0.4962579775715293  0.7370560439332972  0.7729282786083750
  0.7537420224284708  0.5129439560667028  0.7729282786083750
  0.0037932512297902 -0.0119566701944746  0.4933340740145721
  0.2462067487702098  0.2619566701944746  0.4933340740145721
  0.0037932512297902  0.2619566701944746  0.7566659259854279
  0.2462067487702098 -0.0119566701944746  0.7566659259854279
  0.0013193514524715 -0.0051063247619701  0.0127895511224822
  0.2486806485475285  0.2551063247619701  0.0127895511224822
  0.0013193514524715  0.2551063247619701  0.2372104488775178
  0.2486806485475285 -0.0051063247619702  0.2372104488775178
  0.4993847234551207 -0.0004056433222627 -0.0017040981067505
  0.7506152765448795  0.2504056433222626 -0.0017040981067506
  0.4993847234551207  0.2504056433222626  0.2517040981067506
  0.7506152765448795 -0.0004056433222627  0.2517040981067506
 
  0.00000000E+00  0.00000000E+00  0.00000000E+00
  0.00000000E+00  0.00000000E+00  0.00000000E+00
  0.00000000E+00  0.00000000E+00  0.00000000E+00
  0.00000000E+00  0.00000000E+00  0.00000000E+00
  0.00000000E+00  0.00000000E+00  0.00000000E+00
  0.00000000E+00  0.00000000E+00  0.00000000E+00
  0.00000000E+00  0.00000000E+00  0.00000000E+00
  0.00000000E+00  0.00000000E+00  0.00000000E+00
  0.00000000E+00  0.00000000E+00  0.00000000E+00
  0.00000000E+00  0.00000000E+00  0.00000000E+00
  0.00000000E+00  0.00000000E+00  0.00000000E+00
  0.00000000E+00  0.00000000E+00  0.00000000E+00
  0.00000000E+00  0.00000000E+00  0.00000000E+00
  0.00000000E+00  0.00000000E+00  0.00000000E+00
  0.00000000E+00  0.00000000E+00  0.00000000E+00
  0.00000000E+00  0.00000000E+00  0.00000000E+00
  0.00000000E+00  0.00000000E+00  0.00000000E+00
  0.00000000E+00  0.00000000E+00  0.00000000E+00
  0.00000000E+00  0.00000000E+00  0.00000000E+00
  0.00000000E+00  0.00000000E+00  0.00000000E+00
  0.00000000E+00  0.00000000E+00  0.00000000E+00
  0.00000000E+00  0.00000000E+00  0.00000000E+00
  0.00000000E+00  0.00000000E+00  0.00000000E+00
  0.00000000E+00  0.00000000E+00  0.00000000E+00
  0.00000000E+00  0.00000000E+00  0.00000000E+00
  0.00000000E+00  0.00000000E+00  0.00000000E+00
  0.00000000E+00  0.00000000E+00  0.00000000E+00
  0.00000000E+00  0.00000000E+00  0.00000000E+00
  0.00000000E+00  0.00000000E+00  0.00000000E+00
  0.00000000E+00  0.00000000E+00  0.00000000E+00
  0.00000000E+00  0.00000000E+00  0.00000000E+00
  0.00000000E+00  0.00000000E+00  0.00000000E+00
