Nb2 Ni4
1.0
   0.0000000000000000    3.3889730000000000    3.3889730000000000
   3.3889730000000000    0.0000000000000000    3.3889730000000000
   3.3889730000000000    3.3889730000000000    0.0000000000000000
Nb Ni
2 4
direct
   0.2500000000000000    0.2500000000000000    0.2500000000000000 Nb
   0.0000000000000000    0.0000000000000000    0.0000000000000000 Nb
   0.6250000000000000    0.6250000000000000    0.1250000000000000 Ni
   0.6250000000000000    0.1250000000000000    0.6250000000000000 Ni
   0.1250000000000000    0.6250000000000000    0.6250000000000000 Ni
   0.6250000000000000    0.6250000000000000    0.6250000000000000 Ni
