Al3 Ni3 Cu6 Zr3 Nb6 Ta3 
1.0
9.4468034296130678e+00 0.0000000000000000e+00 0.0000000000000000e+00 
-5.1400951353835716e-07 4.3907433905359747e+00 0.0000000000000000e+00 
-3.9833141435229407e-07 9.2262677623831876e-03 9.3246910029868175e+00 
Al Ni Cu Zr Nb Ta 
3 3 6 3 6 3 
Cartesian
   3.2561334193    0.3652436996    4.4790034270
   9.3396008707    0.3652436996    4.4790034270
   1.5744700453    0.3818384399    6.9755122739
   4.7428903362    0.3638856217    2.1474763380
   6.2978720526    0.3688422561    0.1469375484
   7.8528535997    0.3638851826    2.1474763380
   0.1998002330    2.5768285184    7.1023653703
   1.5744698879    2.5532306873    4.7040734937
   2.9491308308    2.5768285184    7.1023653703
   4.4016903113    2.5635022844    4.9897447273
   6.2978715188    2.5725579458    6.6203068195
   8.1940434205    2.5635022844    4.9897447273
   6.2978718701    0.3670502448    4.4348230410
   4.7036292132    0.3781799093    6.9886600882
   7.8921048600    0.3781803484    6.9886600882
   1.5744702434    0.3652009486    2.3709891813
   3.1788020744    0.3673821381    0.0624255426
   9.4169325915    0.3673821381    0.0624255426
   6.2978717050    2.5581041116    2.2897244992
   4.8349016405    2.5736502223    9.2463262998
   7.7608411731    2.5736502223    9.2463262998
   3.2991350970    2.5606356180    2.4741295885
   1.5744700852    2.5620164752    0.0489588239
   9.2966082967    2.5606356180    2.4741295885
