Ni16 Nb8 
1.0
4.8198174059685988e+00 0.0000000000000000e+00 0.0000000000000000e+00 
-2.4099700947594482e+00 4.1740844807518904e+00 0.0000000000000000e+00 
7.5121061031047743e-16 -3.2651305409779605e-16 1.5761505643838468e+01 
Ni Nb 
16 8 
Cartesian
  -0.0000192387    2.7827243785    1.9862807027
  -1.2049850474    2.0870422404    0.0000000000
  -1.2253091649    3.4901482163    3.9403764110
   0.0000232599    1.3678725288    3.9403764110
   1.2252836168    3.4901482163    3.9403764110
  -0.0000192387    2.7827243785    5.8944721192
   2.4098665499    1.3913601022    9.8670335247
   1.2049236556    2.0870422404    7.8807528219
   2.4099087030    0.0000000000    7.8807528219
  -1.2049850474    2.0870422404    7.8807528219
   1.2049236556    2.0870422404   15.7615056438
   2.4099087030    0.0000000000   15.7615056438
   2.4098665499    1.3913601022   13.7752249411
   3.6351564761    0.6839362644   11.8211292329
   2.4098240513    2.8062119519   11.8211292329
   1.1845636944    0.6839362644   11.8211292329
  -2.4092603525    4.1740844808    1.4606738933
   2.4099195679    1.3913601022    2.4571083993
  -2.4092603525    4.1740844808    6.4200710479
   4.8191088884    0.0000000077    9.3414345960
  -0.0000722567    2.7827243785   10.3378612213
   2.4099195679    1.3913601022    5.4236444226
   4.8191088884    0.0000000077   14.3008238698
  -0.0000722567    2.7827243785   13.3043972445
