bcc_Al3_Cu0_Nb3_Ni3_Ta3_W12_Zr0         
   1.00000000000000     
     9.7256514625497115    0.0000000000000000    0.0000000000000000
     0.0000000000000000    6.2519946795714221   -0.0653733022086695
     0.0000000000000000   -0.0651208620197044    6.2791276610154823
   Al   Nb   Ni   Ta   W 
     3     3     3     3    12
Direct
  0.0000000000000000  0.5094772539611359 -0.0103682147141153
  0.3333333333333357  0.5094772539611359 -0.0103682147141153
  0.6666666666666643  0.5094772539611359 -0.0103682147141153
  0.0000000000000000 -0.0040102581490115  0.0032149891632824
  0.3333333333333357 -0.0040102581490115  0.0032149891632824
  0.6666666666666643 -0.0040102581490115  0.0032149891632824
  0.1666666666666643  0.7459847685575425  0.7517929427820076
  0.5000000000000000  0.7459847685575425  0.7517929427820076
  0.8333333333333357  0.7459847685575425  0.7517929427820076
  0.0000000000000000  0.4979121664451211  0.5063249551191012
  0.3333333333333357  0.4979121664451211  0.5063249551191012
  0.6666666666666643  0.4979121664451211  0.5063249551191012
  0.1666666666666643  0.2554119022404649  0.2461433443281968
  0.5000000000000000  0.2554119022404649  0.2461433443281968
  0.8333333333333357  0.2554119022404649  0.2461433443281968
  0.1666666666666643  0.2467868773162976  0.7474565869767243
  0.5000000000000000  0.2467868773162976  0.7474565869767243
  0.8333333333333357  0.2467868773162976  0.7474565869767243
  0.0000000000000000 -0.0057612511972449  0.5051496900038573
  0.3333333333333357 -0.0057612511972449  0.5051496900038573
  0.6666666666666643 -0.0057612511972449  0.5051496900038573
  0.1666666666666643  0.7541985408256945  0.2502857063409454
  0.5000000000000000  0.7541985408256945  0.2502857063409454
  0.8333333333333357  0.7541985408256945  0.2502857063409454
 
  0.00000000E+00  0.00000000E+00  0.00000000E+00
  0.00000000E+00  0.00000000E+00  0.00000000E+00
  0.00000000E+00  0.00000000E+00  0.00000000E+00
  0.00000000E+00  0.00000000E+00  0.00000000E+00
  0.00000000E+00  0.00000000E+00  0.00000000E+00
  0.00000000E+00  0.00000000E+00  0.00000000E+00
  0.00000000E+00  0.00000000E+00  0.00000000E+00
  0.00000000E+00  0.00000000E+00  0.00000000E+00
  0.00000000E+00  0.00000000E+00  0.00000000E+00
  0.00000000E+00  0.00000000E+00  0.00000000E+00
  0.00000000E+00  0.00000000E+00  0.00000000E+00
  0.00000000E+00  0.00000000E+00  0.00000000E+00
  0.00000000E+00  0.00000000E+00  0.00000000E+00
  0.00000000E+00  0.00000000E+00  0.00000000E+00
  0.00000000E+00  0.00000000E+00  0.00000000E+00
  0.00000000E+00  0.00000000E+00  0.00000000E+00
  0.00000000E+00  0.00000000E+00  0.00000000E+00
  0.00000000E+00  0.00000000E+00  0.00000000E+00
  0.00000000E+00  0.00000000E+00  0.00000000E+00
  0.00000000E+00  0.00000000E+00  0.00000000E+00
  0.00000000E+00  0.00000000E+00  0.00000000E+00
  0.00000000E+00  0.00000000E+00  0.00000000E+00
  0.00000000E+00  0.00000000E+00  0.00000000E+00
  0.00000000E+00  0.00000000E+00  0.00000000E+00
