Al16 Ni7 Zr6 
1.0
8.5149949450794296e+00 0.0000000000000000e+00 0.0000000000000000e+00 
4.2574958288726297e+00 7.3741990886754074e+00 0.0000000000000000e+00 
4.2574943215224010e+00 2.4580654926227425e+00 6.9524591136802316e+00 
Al Ni Zr 
16 7 6 
Cartesian
   4.2574952486    2.4580707187    4.4764728971
   4.2574875252    5.0397831928    0.8253403263
   2.0215571533    1.1671168445    0.8252708017
   4.2574287643    2.4580122626    0.0054854277
   4.2575285020    0.8245103974    2.3156207947
   2.8428150582    3.2748471125    2.3156555570
   5.6721728782    3.2748299060    2.3156694619
  10.5365356695    8.6651305303    6.1271813595
   6.4932833836    1.1672495801    0.8253750886
  12.7724200529    7.3741490578    6.9469736234
  12.7725227337    9.0077261743    4.6367687944
  14.1871875101    6.5574469656    4.6368035567
  11.3577951872    6.5574199269    4.6368105091
  12.7724941044    7.3742061529    2.4759792642
  12.7724805403    4.7924076465    6.1271396448
  15.0082789299    8.6649977947    6.1270770726
   6.3862913846    8.6032047963    3.4762573667
  10.6436851147    8.6032244608    3.4762921290
  10.6435140612    6.1450544240    6.9523965415
  12.7724857628    4.9161347487    3.4762365093
  14.9003558792    6.1446906302    6.9524521612
  12.7724748505    9.8321588844    6.9524521612
  12.7721828101    7.3741146922    0.0000115795
  10.1803512964    5.8776272413    2.1164606509
   6.8496982511    5.8775854542    2.1165301755
   8.5149849705    2.9931969774    2.1165093181
   6.8496934040    3.9546766691    4.8359219857
  10.1803464493    3.9546348819    4.8359915103
   8.5149830950    6.8390971007    4.8359706529
