Al1 Ni1 
1.0
2.8851100476346834e+00 0.0000000000000000e+00 0.0000000000000000e+00 
-8.1687715384717494e-10 2.8851100476127094e+00 0.0000000000000000e+00 
3.0635945664371339e-16 3.2499717307422021e-16 2.8851100475126299e+00 
Al Ni 
1 1 
Cartesian
   0.0000000574    0.0000000000    2.8851100475
   1.4425550234    1.4425550238    1.4425550238
