Zr24 Nb4 W4 
1.0
8.8382580986896961e+00 0.0000000000000000e+00 0.0000000000000000e+00 
0.0000000000000000e+00 8.8382580986896961e+00 0.0000000000000000e+00 
0.0000000000000000e+00 0.0000000000000000e+00 8.8382580986896961e+00 
Zr Nb W 
24 4 4 
Cartesian
   8.8129011362    2.2294771202    2.2294771202
   6.6486061695    4.3937720869    2.2294771202
   6.6486061695    2.2294771202    4.3937720869
   2.2349214872    8.8183455032    2.2294771202
   0.0229502164    6.6057406177    2.2687278244
   2.1866115684    4.4420820056    2.2687278244
   4.3992164538    6.6540505365    2.2294771202
   4.3992164538    8.8183455032    4.3937720869
   2.2349214872    2.2294771202    8.8183455032
   4.3992164538    4.3937720869    8.8183455032
   2.1866115684    2.2687278244    4.4420820056
   0.0229503932    2.2687278244    6.6057406177
   4.3992164538    2.2294771202    6.6540505365
   0.0229504816    4.4420820056    8.7790947990
   2.1866115684    6.6057406177    8.7790859607
   0.0229511886    8.7790947990    4.4420820056
   2.1866115684    8.7790859607    6.6057406177
   4.3599657496    4.4420820056    4.4420820056
   4.3599657496    6.6057406177    6.6057406177
   8.8129011362    8.8183455032    8.8183455032
   6.6486061695    6.6540505365    8.8183455032
   6.6486061695    8.8183455032    6.6540505365
   6.6878568737    6.6057406177    4.4420820056
   6.6878568737    4.4420820056    6.6057406177
   4.4756231951    0.0564951180    0.0564951180
   6.5721994283    2.1530703789    0.0564947644
   4.4756231951    2.1530703789    2.1530703789
   6.5721994283    0.0564955599    2.1530703789
   0.1371299935    4.5562634620    4.5562634620
   2.0724389503    6.4915591614    4.5562634620
   0.1371291097    6.4915591614    6.4915679996
   2.0724301120    4.5562634620    6.4915591614
