Al10 Ta20 
1.0
9.9360679514377193e+00 0.0000000000000000e+00 0.0000000000000000e+00 
0.0000000000000000e+00 9.9360066683620154e+00 0.0000000000000000e+00 
0.0000000000000000e+00 0.0000000000000000e+00 5.3796152495001035e+00 
Al Ta 
10 20 
Cartesian
   3.6107174132    0.3648501649    5.3796152495
   0.3648504280    3.6106951432    5.3796152495
   5.3328863909    1.3573081909    2.6898076248
   8.5787513889    4.6031531693    2.6898076248
   4.9680339757    4.9680033342    0.0000000023
   1.3573165625    5.3328534990    2.6898076248
   4.6031815605    8.5786984774    2.6898076248
   9.9360679514    9.9360066684    2.6898076248
   9.5712155363    6.3253115251    0.0000001218
   6.3253505382    9.5711565035    0.0000001068
   3.1034811443    3.1034620028    1.3458775227
   2.6029219130    0.6320959554    2.6898076248
   3.1034811443    3.1034620028    4.0337377268
   0.6320998540    2.6029058589    2.6898076248
   0.9915361186    0.9915300030    5.3796152495
   8.0715151200    1.8645413314    4.0356851475
   5.6001368106    2.3650974753    0.0000000370
   8.0715151200    1.8645413314    1.3439301020
   5.9595740687    3.9764693567    2.6898076248
   7.5709558888    4.3359043980    5.3796152495
   4.3359311409    7.5709091931    5.3796152495
   3.9764938827    5.9595373116    2.6898076248
   1.8645528314    8.0714653370    4.0356851475
   2.3651120627    5.6001022704    0.0000000367
   1.8645528314    8.0714653370    1.3439301020
   9.3039651166    7.3331008095    2.6898076248
   8.9445278584    8.9444726909    5.3796152495
   6.8325868071    6.8325446655    4.0337377268
   6.8325868071    6.8325446655    1.3458775227
   7.3331460384    9.3039077321    2.6898076248
