Al5 Cu5
1.0
   3.8403011800000000   -0.0055264200000000    1.3041993500000000
   1.2443125600000000    5.6137299599999997    2.6113531100000000
  -0.0131612800000000    0.0128706300000000    6.3245418500000001
Al Cu
5 5
direct
   0.5000000000000000    0.5000000000000000    0.5000000000000000 Al
   0.8451497100000001    0.4604835600000000    0.8495774100000000 Al
   0.1548502900000000    0.5395164400000000    0.1504225900000000 Al
   0.6231679100000000    0.9937709200000000    0.7605917100000000 Al
   0.3768320900000000    0.0062290800000000    0.2394082900000000 Al
   0.0000000000000000    0.0000000000000000   -0.0000000000000000 Cu
   0.7396972100000000    0.2415069600000000    0.2758316300000000 Cu
   0.2603027900000000    0.7584930400000001    0.7241683700000000 Cu
   0.8909535800000000    0.7725454400000000    0.4456253600000000 Cu
   0.1090464200000000    0.2274545600000000    0.5543746400000000 Cu
