Cu6 
1.0
2.5395990658766570e+00 0.0000000000000000e+00 0.0000000000000000e+00 
-1.2698506810773673e+00 2.1993569930201367e+00 0.0000000000000000e+00 
3.5345340773235823e-06 -1.2254848577794172e-08 2.4922751900789365e+01 
Cu 
6 
Cartesian
   0.0000004890    0.0000004575    0.0491135226
   1.2697556300    0.7331182564   16.5830757370
  -0.0000345835    1.4662365220   14.4891658133
   1.2694640593    2.1993569838   18.6800760819
   1.2697819187    0.7331182533   22.8779647211
  -0.0000603570    1.4662387182   20.7809394534
