Zr6 Ni23                                
   1.00000000000000     
     0.0000000000000000    5.7401233414694888    5.7401233414694888
     5.7401233414694888    0.0000000000000000    5.7401233414694888
     5.7401233414694888    5.7401233414694888    0.0000000000000000
   Zr   Ni
     6    23
Direct
  0.7141091748331341  0.7141091748331341  0.2858908251668588
  0.2858908251668588  0.7141091748331341  0.2858908251668588
  0.7141091748331341  0.2858908251668588  0.2858908251668588
  0.2858908251668588  0.2858908251668588  0.7141091748331341
  0.7141091748331341  0.2858908251668588  0.7141091748331341
  0.2858908251668588  0.7141091748331341  0.7141091748331341
 -0.0000000000000000  0.0000000000000000  0.0000000000000000
 -0.0000000000000000  0.0000000000000000  0.5000000000000000
  0.5000000000000000  0.0000000000000000  0.5000000000000000
 -0.0000000000000000  0.5000000000000000  0.5000000000000000
  0.5000000000000000  0.5000000000000000  0.0000000000000000
 -0.0000000000000000  0.5000000000000000  0.0000000000000000
  0.5000000000000000  0.0000000000000000  0.0000000000000000
  0.8798221430871976  0.8798221430871976  0.3605325707384160
  0.8798221430871976  0.3605325707384160  0.8798221430871976
  0.3605325707384160  0.8798221430871976  0.8798221430871976
  0.8798221430871976  0.8798221430871976  0.8798221430871976
  0.1201778569128021  0.1201778569128021  0.6394674292615841
  0.1201778569128021  0.6394674292615841  0.1201778569128021
  0.6394674292615841  0.1201778569128021  0.1201778569128021
  0.1201778569128021  0.1201778569128021  0.1201778569128021
  0.6711649710155732  0.6711649710155732  0.9865040869532896
  0.6711649710155732  0.9865040869532896  0.6711649710155732
  0.9865040869532896  0.6711649710155732  0.6711649710155732
  0.6711649710155732  0.6711649710155732  0.6711649710155732
  0.3288350289844266  0.3288350289844266  0.0134959130467105
  0.3288350289844266  0.0134959130467105  0.3288350289844266
  0.0134959130467105  0.3288350289844266  0.3288350289844266
  0.3288350289844266  0.3288350289844266  0.3288350289844266
 
  0.00000000E+00  0.00000000E+00  0.00000000E+00
  0.00000000E+00  0.00000000E+00  0.00000000E+00
  0.00000000E+00  0.00000000E+00  0.00000000E+00
  0.00000000E+00  0.00000000E+00  0.00000000E+00
  0.00000000E+00  0.00000000E+00  0.00000000E+00
  0.00000000E+00  0.00000000E+00  0.00000000E+00
  0.00000000E+00  0.00000000E+00  0.00000000E+00
  0.00000000E+00  0.00000000E+00  0.00000000E+00
  0.00000000E+00  0.00000000E+00  0.00000000E+00
  0.00000000E+00  0.00000000E+00  0.00000000E+00
  0.00000000E+00  0.00000000E+00  0.00000000E+00
  0.00000000E+00  0.00000000E+00  0.00000000E+00
  0.00000000E+00  0.00000000E+00  0.00000000E+00
  0.00000000E+00  0.00000000E+00  0.00000000E+00
  0.00000000E+00  0.00000000E+00  0.00000000E+00
  0.00000000E+00  0.00000000E+00  0.00000000E+00
  0.00000000E+00  0.00000000E+00  0.00000000E+00
  0.00000000E+00  0.00000000E+00  0.00000000E+00
  0.00000000E+00  0.00000000E+00  0.00000000E+00
  0.00000000E+00  0.00000000E+00  0.00000000E+00
  0.00000000E+00  0.00000000E+00  0.00000000E+00
  0.00000000E+00  0.00000000E+00  0.00000000E+00
  0.00000000E+00  0.00000000E+00  0.00000000E+00
  0.00000000E+00  0.00000000E+00  0.00000000E+00
  0.00000000E+00  0.00000000E+00  0.00000000E+00
  0.00000000E+00  0.00000000E+00  0.00000000E+00
  0.00000000E+00  0.00000000E+00  0.00000000E+00
  0.00000000E+00  0.00000000E+00  0.00000000E+00
  0.00000000E+00  0.00000000E+00  0.00000000E+00
