Al2 
1.0
2.8293735790418451e+00 0.0000000000000000e+00 0.0000000000000000e+00 
-1.4146867897243298e+00 2.4503093964312179e+00 0.0000000000000000e+00 
-2.5765307022305056e-16 -8.2084163940223771e-17 4.7884895733638571e+00 
Al 
2 
Cartesian
  -1.4146863144    2.4503093964    4.7884895734
   1.4146882041    0.8167689820    2.3942447867
