Al5 Cu1 W2
1.0
   3.7819400000000001    0.0000000000000000    0.0000000000000000
   0.0000000000000000    3.7819400000000001    0.0000000000000000
   0.0000000000000000    0.0000000000000000    8.2576769999999993
Al Cu W
5 1 2
direct
   0.0000000000000000    0.5000000000000000    0.2611330000000000 Al
   0.5000000000000000    0.0000000000000000    0.7388669999999991 Al
   0.5000000000000000    0.0000000000000000    0.2611330000000000 Al
   0.0000000000000000    0.5000000000000000    0.7388669999999991 Al
   0.5000000000000000    0.5000000000000000    0.0000000000000000 Al
   0.0000000000000000    0.0000000000000000    0.5000000000000000 Cu
   0.0000000000000000    0.0000000000000000    0.0000000000000000 W
   0.5000000000000000    0.5000000000000000    0.5000000000000000 W
