hcp_Al0_Cu9_Nb3_Ni3_Ta3_W6_Zr0          
   1.00000000000000     
     8.0020257503468315    0.0000000000000000    0.0000000000000000
     0.0000000000000000    4.9242785851619733   -0.0206359490228382
     0.0000000000000000   -0.0379668429420189    8.9419823261638243
   Cu   Nb   Ni   Ta   W 
     9     3     3     3     6
Direct
  0.5041497242657772  0.1899594002229547  0.2551186107941130
  0.6666669999999968 -0.0056958791944995  0.0052501164583184
  0.8291832757342259  0.1899594002229547  0.2551186107941130
  0.4889918683790779  0.4930105619950070  0.4967082038326108
  0.6666669999999968  0.6486535470138846  0.7497419043487358
  0.8443411316209252  0.4930105619950070  0.4967082038326108
  0.0067983367283412  0.6663465657909945  0.7446988343539015
  0.1666669999999968  0.4950116849579894  0.5003703878305292
  0.3265346632716619  0.6663465657909945  0.7446988343539015
  0.4900831943195701  0.1575405485437252  0.7498213301004885
  0.6666669999999968 -0.0013965427808287  0.5047970062212408
  0.8432498056804331  0.1575405485437252  0.7498213301004885
  0.0058684364531116  0.6779750417146085  0.2498918674477195
  0.1666669999999968  0.5081888739777654 -0.0034071829960810
  0.3274645635468915  0.6779750417146085  0.2498918674477195
  0.4890577972200056  0.4854961735292372  0.0009284120320682
  0.6666669999999968  0.6972809540790783  0.2589376306706908
  0.8442752027799975  0.4854961735292372  0.0009284120320682
  0.0090934835481790 -0.0249645996259073  0.4868343649540726
  0.1666669999999968  0.1859422769167897  0.7495740927117835
  0.3242395164518244 -0.0249645996259073  0.4868343649540726
  0.0039181462022496 -0.0144575618051464  0.0119165362785824
  0.1666669999999968  0.2102068242988354  0.2428997251676691
  0.3294148537977538 -0.0144575618051464  0.0119165362785824
 
  0.00000000E+00  0.00000000E+00  0.00000000E+00
  0.00000000E+00  0.00000000E+00  0.00000000E+00
  0.00000000E+00  0.00000000E+00  0.00000000E+00
  0.00000000E+00  0.00000000E+00  0.00000000E+00
  0.00000000E+00  0.00000000E+00  0.00000000E+00
  0.00000000E+00  0.00000000E+00  0.00000000E+00
  0.00000000E+00  0.00000000E+00  0.00000000E+00
  0.00000000E+00  0.00000000E+00  0.00000000E+00
  0.00000000E+00  0.00000000E+00  0.00000000E+00
  0.00000000E+00  0.00000000E+00  0.00000000E+00
  0.00000000E+00  0.00000000E+00  0.00000000E+00
  0.00000000E+00  0.00000000E+00  0.00000000E+00
  0.00000000E+00  0.00000000E+00  0.00000000E+00
  0.00000000E+00  0.00000000E+00  0.00000000E+00
  0.00000000E+00  0.00000000E+00  0.00000000E+00
  0.00000000E+00  0.00000000E+00  0.00000000E+00
  0.00000000E+00  0.00000000E+00  0.00000000E+00
  0.00000000E+00  0.00000000E+00  0.00000000E+00
  0.00000000E+00  0.00000000E+00  0.00000000E+00
  0.00000000E+00  0.00000000E+00  0.00000000E+00
  0.00000000E+00  0.00000000E+00  0.00000000E+00
  0.00000000E+00  0.00000000E+00  0.00000000E+00
  0.00000000E+00  0.00000000E+00  0.00000000E+00
  0.00000000E+00  0.00000000E+00  0.00000000E+00
