Cu6 Nb15 Ta3 
1.0
9.7292251850602725e+00 0.0000000000000000e+00 0.0000000000000000e+00 
-5.1522716068085653e-07 4.6293626718249188e+00 0.0000000000000000e+00 
3.3247078108544989e-07 -4.7288221750775467e-07 8.9715342170416648e+00 
Cu Nb Ta 
6 15 3 
Cartesian
   0.0867563538    2.7004043448    2.2448483203
   3.1563161003    2.7004043448    2.2448483203
   1.6215404734    2.7003998337    0.0014132589
   1.6215406395    2.7006032894    4.4820618649
   0.1047973249    2.7004272554    6.7257079996
   3.1382782828    2.7004272554    6.7257079996
   1.6215408133    0.3857216212    2.2222579971
   4.8188950034    0.3857651364    2.2384247018
   0.0322440692    0.3857309964    0.0130673984
   3.2108291239    0.3857309964    0.0130686545
   8.1534118095    0.3857646735    2.2384247018
   6.4861531489    2.7004645267    2.2403087239
   4.8282836975    2.7004271371    8.9693631058
   4.8306282747    2.7005384781    4.4873281555
   4.8016452537    0.3857783247    6.7323738495
   6.4861536558    0.3857583007    8.9653797446
   6.4861534899    0.3858196442    4.4899747581
   8.1440133698    2.7004271371    8.9693631058
   8.1416781897    2.7005384781    4.4873281555
   6.4861533153    2.7004735488    6.7297990192
   8.1706521631    0.3857778617    6.7323738495
   0.0604210436    0.3858900112    4.4764636275
   3.1826534532    0.3858895483    4.4764636275
   1.6215409812    0.3857436034    6.7520573956
