fcc_Al4_Cu0_Nb8_Ni12_Ta4_W0_Zr4         
   1.00000000000000     
     8.9191603636886239    0.0000000000000000    0.0000000000000000
     0.0000000000000000    9.4096024043155726    0.0000000000000000
     0.0000000000000000    0.0000000000000000    6.0236982732224593
   Al   Nb   Ni   Ta   Zr
     4     8    12     4     4
Direct
  0.4962487426357639  0.5194115375346946 -0.0489770288786832
  0.7537512573642365  0.7305884624653054 -0.0489770288786832
  0.4962487426357639  0.7305884624653054  0.2989770288786833
  0.7537512573642365  0.5194115375346946  0.2989770288786833
  0.5100106191428145 -0.0195566302102665  0.0130840416377563
  0.7399893808571855  0.2695566302102666  0.0130840416377563
  0.5100106191428145  0.2695566302102666  0.2369159583622436
  0.7399893808571855 -0.0195566302102665  0.2369159583622436
  0.4892432357668635 -0.0112673899205638  0.5186554717679015
  0.7607567642331361  0.2612673899205639  0.5186554717679015
  0.4892432357668635  0.2612673899205639  0.7313445282320984
  0.7607567642331361 -0.0112673899205638  0.7313445282320984
 -0.0153902186258982 -0.0654322138311964 -0.0108796494467272
  0.2653902186258982  0.3154322138311963 -0.0108796494467272
 -0.0153902186258982  0.3154322138311963  0.2608796494467273
  0.2653902186258982 -0.0654322138311964  0.2608796494467273
  0.5053257308286642  0.5051864702865532  0.5031545779141039
  0.7446742691713358  0.7448135297134467  0.5031545779141039
  0.5053257308286642  0.7448135297134467  0.7468454220858961
  0.7446742691713358  0.5051864702865532  0.7468454220858961
 -0.0013394855564195  0.5055761443030978  0.5316691935081350
  0.2513394855564195  0.7444238556969022  0.5316691935081350
 -0.0013394855564195  0.7444238556969022  0.7183308064918649
  0.2513394855564195  0.5055761443030978  0.7183308064918649
 -0.0029230685530453  0.5187611822977742 -0.0323285080725053
  0.2529230685530455  0.7312388177022258 -0.0323285080725053
 -0.0029230685530453  0.7312388177022258  0.2823285080725053
  0.2529230685530455  0.5187611822977742  0.2823285080725053
  0.0098283759475401  0.0213800029747779  0.4237217387600477
  0.2401716240524598  0.2286199970252221  0.4237217387600477
  0.0098283759475401  0.2286199970252221  0.8262782612399525
  0.2401716240524598  0.0213800029747779  0.8262782612399525
 
  0.00000000E+00  0.00000000E+00  0.00000000E+00
  0.00000000E+00  0.00000000E+00  0.00000000E+00
  0.00000000E+00  0.00000000E+00  0.00000000E+00
  0.00000000E+00  0.00000000E+00  0.00000000E+00
  0.00000000E+00  0.00000000E+00  0.00000000E+00
  0.00000000E+00  0.00000000E+00  0.00000000E+00
  0.00000000E+00  0.00000000E+00  0.00000000E+00
  0.00000000E+00  0.00000000E+00  0.00000000E+00
  0.00000000E+00  0.00000000E+00  0.00000000E+00
  0.00000000E+00  0.00000000E+00  0.00000000E+00
  0.00000000E+00  0.00000000E+00  0.00000000E+00
  0.00000000E+00  0.00000000E+00  0.00000000E+00
  0.00000000E+00  0.00000000E+00  0.00000000E+00
  0.00000000E+00  0.00000000E+00  0.00000000E+00
  0.00000000E+00  0.00000000E+00  0.00000000E+00
  0.00000000E+00  0.00000000E+00  0.00000000E+00
  0.00000000E+00  0.00000000E+00  0.00000000E+00
  0.00000000E+00  0.00000000E+00  0.00000000E+00
  0.00000000E+00  0.00000000E+00  0.00000000E+00
  0.00000000E+00  0.00000000E+00  0.00000000E+00
  0.00000000E+00  0.00000000E+00  0.00000000E+00
  0.00000000E+00  0.00000000E+00  0.00000000E+00
  0.00000000E+00  0.00000000E+00  0.00000000E+00
  0.00000000E+00  0.00000000E+00  0.00000000E+00
  0.00000000E+00  0.00000000E+00  0.00000000E+00
  0.00000000E+00  0.00000000E+00  0.00000000E+00
  0.00000000E+00  0.00000000E+00  0.00000000E+00
  0.00000000E+00  0.00000000E+00  0.00000000E+00
  0.00000000E+00  0.00000000E+00  0.00000000E+00
  0.00000000E+00  0.00000000E+00  0.00000000E+00
  0.00000000E+00  0.00000000E+00  0.00000000E+00
  0.00000000E+00  0.00000000E+00  0.00000000E+00
