Zr6 Ta2
1.0
   3.1530450000000001   -5.4612340000000001    0.0000000000000000
   3.1530450000000001    5.4612340000000001    0.0000000000000000
   0.0000000000000000    0.0000000000000000    5.1509819999999999
Zr Ta
6 2
direct
   0.1712030000000000    0.3424049999999990    0.2500000000000000 Zr
   0.6575949999999990    0.8287970000000000    0.2500000000000000 Zr
   0.1712030000000000    0.8287970000000000    0.2500000000000000 Zr
   0.8287970000000000    0.6575949999999990    0.7500000000000000 Zr
   0.3424049999999990    0.1712030000000000    0.7500000000000000 Zr
   0.8287970000000000    0.1712030000000000    0.7500000000000000 Zr
   0.3333330000000000    0.6666670000000000    0.7500000000000000 Ta
   0.6666670000000000    0.3333330000000000    0.2500000000000000 Ta
