Converted from final.data
1.0
16.0198809079471687 0.0000000000000000 0.0000000000000000
-0.4549143708382864 33.9272624396972731 0.0000000000000000
0.3387740291730109 0.2939661870978586 15.7026002631819601
Al Zr Nb W Ta Cu
2 14 14 3 6 22
Direct
0.6451717001775699 0.2429245486643254 0.0925167140608548
0.3190186700157568 0.3523512413942561 0.3237963767833869
0.6557920758595859 0.1385288735655874 0.3372016188247313
0.0698382529809274 0.5483097111773410 0.7353353480222988
0.3047763979404858 0.4424264394296860 0.3295797476475163
0.2765883835890763 0.2468136829496940 0.3324138172058323
0.0981654722343332 0.5632352173234109 0.4604595895804579
0.4951746698228570 0.1471408974848173 0.4838822019140325
0.2703995999325280 0.1515336670548399 0.2310552085392446
0.5222603951126205 0.0071581853873386 0.0500825570246310
0.5741829534778073 0.9132568941354218 0.5449648493555334
0.0304055774420446 0.2268324619833684 0.1329026648862085
0.7892241035294225 0.3680013542913834 0.3260711734064151
0.0814449897114647 0.4951697605634597 0.9487440503762612
0.9986751598412753 0.4295802325844341 0.5974461169613680
0.0357499012765191 0.3949936783764216 0.4001056478140331
0.5081015184245986 0.1461452789404795 0.8437767503616146
0.9164774780099137 0.0787646043105632 0.0663595524985106
0.6893990244815419 0.3658267107214682 0.0392059648476533
0.7178783802470815 0.3675824369093023 0.5155868115304177
0.1026962366259827 0.2978896955285278 0.1976308027499234
0.7279404817219528 0.4656418294611919 0.0330596478019203
0.4233845049950897 0.3016095339111836 0.1950852244108694
0.3814607281787778 0.3826143084253361 0.1545983652781990
0.6302913498501013 0.2063413107491323 0.6295897084824164
0.6750040128267302 0.2777579655987796 0.5832388351021947
0.2222006541297400 0.4203282385603352 0.1525353565530987
0.9394341724702627 0.1085310172216733 0.3888765449224998
0.8260189969995834 0.0049683166219191 0.0513021243974755
0.2870310914071829 0.0475059990855740 0.1764519485623099
0.5581101527024575 0.3176694980326554 0.1112131848428524
0.1636344135052685 0.9119281305058188 -0.0037970726055079
0.3090739812291156 0.3347879566924438 0.0117678177091891
0.0578584766513752 0.0052763512376526 0.4616555568006974
0.5137823055980734 0.3607802759042003 0.2731127694922439
0.6770387870211059 0.3503467751728248 0.2102942588306261
0.1413975374789210 0.0368777048617051 0.9740571226547374
0.2190953375929557 0.3838570647061331 0.4327956181547649
0.8704128168626855 0.3575825425504627 0.1488372310438659
0.0778314696998546 0.1258221342655705 0.4663498031159779
0.2021297061064748 0.4961219053754866 0.0497702227171836
0.5251155029059277 0.2356245469681039 0.5084078572368030
0.4772880584083158 0.4546367319630146 0.2480241105488784
0.7971201492660753 0.1364343173701920 0.4496714380939937
0.2048264270815804 0.5044698661353615 0.1862765779785104
0.0962405509494417 0.2600399988559866 0.4892274580804454
0.1475109968217206 0.4491345629949265 0.2855013992132360
0.4552189789510764 0.3015522530503414 0.3742122287553887
0.6020263686101464 0.4864511976366493 0.4657540644876731
0.0846083670319619 0.1361102973378413 0.3049628629174906
0.6959335215748575 0.1471729889254921 0.5345900058119231
0.2621393728071669 0.2983011947189020 0.1798496403381323
0.9692120458401899 0.2899432395298324 0.7018035908192620
0.4185298288143906 0.0572878074297486 0.7391738993886855
0.3856963608827518 0.0986942169886448 0.2181937280002756
0.7125436381822412 0.9439808977409080 0.6323212757379904
0.0859353651519673 0.2357475043585068 0.3318763863429337
0.5446609343829516 0.0721927595184726 0.3036503480929082
0.3645373211967476 0.1854263684298337 0.3539842872467677
0.7331155888721115 0.8315835694332298 0.4011961818639065
0.6742783895123456 0.1591132632122232 0.1629133673272314
