Ni9 Cu3 Ta4 
1.0
4.2844020579632316e+00 0.0000000000000000e+00 0.0000000000000000e+00 
0.0000000000000000e+00 4.4807820681906909e+00 0.0000000000000000e+00 
0.0000000000000000e+00 0.0000000000000000e+00 1.0549218683327382e+01 
Ni Cu Ta 
9 3 4 
Cartesian
   2.1422010290    0.7643318052    3.9740700147
   2.1422010290    0.7614506623    1.3227770799
   0.0000000314    3.7466238494    3.9564528195
   0.0000000050    3.6920344815    1.3300982377
   2.1422010290    3.0532407475    5.2746093417
   2.1422010290    0.7614506623    9.2264416034
   2.1422010290    0.7643318052    6.5751486686
   0.0000000427    3.6920344815    9.2191204456
   0.0000000147    3.7466238494    6.5927658638
   4.2844020580    1.3819404016    2.6330111388
   2.1422010290    3.0892348699   10.5492186833
   0.0000000650    1.3819404016    7.9162075445
   2.1422010290    3.0006766931    2.6843225385
   4.2844020580    1.5608625103    5.2746093417
   4.2844020580    1.4488026316   10.5492186833
   2.1422010290    3.0006766931    7.8648961448
