fcc_Al0_Cu8_Nb4_Ni8_Ta4_W0_Zr8          
   1.00000000000000     
     7.5651475463786824    0.0000000000000000    0.0000000000000000
     0.0000000000000000    8.0175138177240743    0.0000000000000000
     0.0000000000000000    0.0000000000000000    8.5133564391726519
   Cu   Nb   Ni   Ta   Zr
     8     4     8     4     8
Direct
  0.5055948844600512  0.0173648512180507  0.5100187839354136
  0.7444051155399488  0.2326351487819493  0.5100187839354136
  0.5055948844600512  0.2326351487819493  0.7399812160645864
  0.7444051155399488  0.0173648512180507  0.7399812160645864
  0.0078601391994673  0.5041359372246593  0.0180455399021135
  0.2421398608005327  0.7458640627753407  0.0180455399021135
  0.0078601391994673  0.7458640627753407  0.2319544600978866
  0.2421398608005327  0.5041359372246593  0.2319544600978866
 -0.0325486886645969 -0.0027374783404086  0.0116821235140513
  0.2825486886645969  0.2527374783404087  0.0116821235140513
 -0.0325486886645969  0.2527374783404087  0.2383178764859487
  0.2825486886645969 -0.0027374783404086  0.2383178764859487
  0.5482808441109338  0.4858508293692690  0.4979508752038041
  0.7017191558890662  0.7641491706307310  0.4979508752038041
  0.5482808441109338  0.7641491706307310  0.7520491247961957
  0.7017191558890662  0.4858508293692690  0.7520491247961957
  0.4963371583158385  0.5283654298870726  0.0195606766130407
  0.7536628416841614  0.7216345701129274  0.0195606766130407
  0.4963371583158385  0.7216345701129274  0.2304393233869593
  0.7536628416841614  0.5283654298870726  0.2304393233869593
  0.5296648930679493 -0.0347012404816145 -0.0032783037164257
  0.7203351069320507  0.2847012404816145 -0.0032783037164257
  0.5296648930679493  0.2847012404816145  0.2532783037164256
  0.7203351069320507 -0.0347012404816145  0.2532783037164256
 -0.0712258035232797  0.5299422584711452  0.4777386433769470
  0.3212258035232796  0.7200577415288548  0.4777386433769470
 -0.0712258035232797  0.7200577415288548  0.7722613566230528
  0.3212258035232796  0.5299422584711452  0.7722613566230528
 -0.0081431915757650 -0.0222063745744551  0.4875386063847668
  0.2581431915757650  0.2722063745744552  0.4875386063847668
 -0.0081431915757650  0.2722063745744552  0.7624613936152336
  0.2581431915757650 -0.0222063745744551  0.7624613936152336
 
  0.00000000E+00  0.00000000E+00  0.00000000E+00
  0.00000000E+00  0.00000000E+00  0.00000000E+00
  0.00000000E+00  0.00000000E+00  0.00000000E+00
  0.00000000E+00  0.00000000E+00  0.00000000E+00
  0.00000000E+00  0.00000000E+00  0.00000000E+00
  0.00000000E+00  0.00000000E+00  0.00000000E+00
  0.00000000E+00  0.00000000E+00  0.00000000E+00
  0.00000000E+00  0.00000000E+00  0.00000000E+00
  0.00000000E+00  0.00000000E+00  0.00000000E+00
  0.00000000E+00  0.00000000E+00  0.00000000E+00
  0.00000000E+00  0.00000000E+00  0.00000000E+00
  0.00000000E+00  0.00000000E+00  0.00000000E+00
  0.00000000E+00  0.00000000E+00  0.00000000E+00
  0.00000000E+00  0.00000000E+00  0.00000000E+00
  0.00000000E+00  0.00000000E+00  0.00000000E+00
  0.00000000E+00  0.00000000E+00  0.00000000E+00
  0.00000000E+00  0.00000000E+00  0.00000000E+00
  0.00000000E+00  0.00000000E+00  0.00000000E+00
  0.00000000E+00  0.00000000E+00  0.00000000E+00
  0.00000000E+00  0.00000000E+00  0.00000000E+00
  0.00000000E+00  0.00000000E+00  0.00000000E+00
  0.00000000E+00  0.00000000E+00  0.00000000E+00
  0.00000000E+00  0.00000000E+00  0.00000000E+00
  0.00000000E+00  0.00000000E+00  0.00000000E+00
  0.00000000E+00  0.00000000E+00  0.00000000E+00
  0.00000000E+00  0.00000000E+00  0.00000000E+00
  0.00000000E+00  0.00000000E+00  0.00000000E+00
  0.00000000E+00  0.00000000E+00  0.00000000E+00
  0.00000000E+00  0.00000000E+00  0.00000000E+00
  0.00000000E+00  0.00000000E+00  0.00000000E+00
  0.00000000E+00  0.00000000E+00  0.00000000E+00
  0.00000000E+00  0.00000000E+00  0.00000000E+00
