Nb20 Al10
1.0
   5.1837770200000000    0.0000000000000000    0.0000000000000000
   0.0000000000000000    9.9922440899999998   -0.0000352900000000
   0.0000000000000000   -0.0000352900000000    9.9922440899999998
Nb Al
20 10
direct
  -0.0000000000000000    0.3964994000000000    0.3964994000000000 Nb
   0.5000000000000000    0.1035118200000000    0.8964881800000000 Nb
   0.5000000000000000    0.8964881800000000    0.1035118200000000 Nb
   0.0000000000000000    0.6035005999999991    0.6035005999999991 Nb
  -0.0000000000000000    0.4647846800000000    0.1278085300000000 Nb
   0.5000000000000000    0.3722014800000000    0.9647765300000000 Nb
   0.5000000000000000    0.6277985200000000    0.0352234700000000 Nb
  -0.0000000000000000    0.5352153200000000    0.8721914700000000 Nb
   0.5000000000000000    0.9647765300000000    0.3722014800000000 Nb
   0.5000000000000000    0.0352234700000000    0.6277985200000000 Nb
   0.0000000000000000    0.1278085300000000    0.4647846800000000 Nb
   0.0000000000000000    0.8721914700000000    0.5352153200000000 Nb
   0.2524540300000000    0.1814155400000000    0.1814155400000000 Nb
   0.7524814100000000    0.3185943500000000    0.6814056500000000 Nb
   0.7524814100000000    0.6814056500000000    0.3185943500000000 Nb
   0.2524540300000000    0.8185844600000001    0.8185844600000001 Nb
   0.2475185900000000    0.6814056500000000    0.3185943500000000 Nb
   0.2475185900000000    0.3185943500000000    0.6814056500000000 Nb
   0.7475459700000000    0.1814155400000000    0.1814155400000000 Nb
   0.7475459700000000    0.8185844600000001    0.8185844600000001 Nb
   0.0000000000000000    0.0000000000000000    0.0000000000000000 Al
   0.5000000000000000    0.5000000000000000    0.5000000000000000 Al
   0.0000000000000000    0.9329324600000001    0.2612767600000000 Al
   0.5000000000000000    0.2387208600000000    0.4329304200000000 Al
   0.5000000000000000    0.7612791400000000    0.5670695800000000 Al
  -0.0000000000000000    0.0670675400000000    0.7387232400000000 Al
   0.5000000000000000    0.4329304200000000    0.2387208600000000 Al
   0.5000000000000000    0.5670695800000000    0.7612791400000000 Al
  -0.0000000000000000    0.2612767600000000    0.9329324600000001 Al
  -0.0000000000000000    0.7387232400000000    0.0670675400000000 Al
