Al3 Ni2
1.0
   3.9941960000000001    0.0000000000000000    0.0000000000000000
  -1.9970990000000000    3.4590739999999989    0.0000000000000000
   0.0000000000000000    0.0000000000000000    4.8808619999999996
Al Ni
3 2
direct
   0.0000000000000000    0.0000000000000000    0.0000000000000000 Al
   0.3333330000000000    0.6666670000000000    0.6480830000000000 Al
   0.6666670000000000    0.3333330000000000    0.3519170000000000 Al
   0.3333330000000000    0.6666670000000000    0.1465719999999990 Ni
   0.6666670000000000    0.3333330000000000    0.8534280000000000 Ni
