Al4 Ni4 Ta4 
1.0
4.8464407527044013e+00 0.0000000000000000e+00 0.0000000000000000e+00 
-2.5344762353124723e+00 4.2594375260101121e+00 0.0000000000000000e+00 
-8.1996132621083520e-16 -4.6254050607848737e-16 7.9293464684390642e+00 
Al Ni Ta 
4 4 4 
Cartesian
   2.2737076877    4.2366708324    3.8719315979
   2.2737076877    4.2366708324    0.0927408434
  -0.0036033944    1.4697146589    5.9470098513
  -1.2444956316    3.5551565688    5.9470098513
   1.1389309626    3.5614520175    5.9470098513
   2.3325369776    2.7883598471    1.9823366171
   3.5633572063    0.7198449419    1.9823366171
   1.2157357542    0.7233973128    1.9823366171
   2.4016378097    1.4290370305    4.4199842378
  -0.0847030471    2.8333608046    3.3908740064
  -0.0847030471    2.8333608046    0.5738016066
   2.4016378097    1.4290370305    7.4740354649
