Al1 Ni2 Zr1 
1.0
4.4147973507462339e+00 0.0000000000000000e+00 0.0000000000000000e+00 
2.2074389395247129e+00 3.8233793464062815e+00 0.0000000000000000e+00 
2.2074295474132239e+00 1.2744335853138760e+00 3.6046840082566822e+00 
Al Ni Zr 
1 2 1 
Cartesian
   4.4147159134    5.0974802977    3.6046840083
   2.2073767262    1.2744532329    0.9011710021
   6.6222074376    3.8233558754    2.7035130062
   4.4147600746    2.5489026425    1.8023420041
