W8 
1.0
5.0344922191480999e+00 0.0000000000000000e+00 0.0000000000000000e+00 
0.0000000000000000e+00 5.0344922191480999e+00 0.0000000000000000e+00 
0.0000000000000000e+00 0.0000000000000000e+00 5.0344922191480999e+00 
W 
8 
Cartesian
   1.2586230548    5.0344922191    2.5172461096
   3.7758691644    0.0000000051    2.5172461096
   0.0000000019    2.5172461096    1.2586230548
   0.0000000042    2.5172461096    3.7758691644
   2.5172461096    3.7758691644    0.0000000081
   2.5172461096    1.2586230548    0.0000000050
   0.0000018465    5.0344922191    0.0000000032
   2.5172461096    2.5172461096    2.5172461096
