Nb7 Ni6                                 
   1.00000000000000     
    -2.4650628890699124   -4.2696149099189959    0.0000000000663716
     2.4650628890699124   -4.2696149099189959    0.0000000000663716
     0.0000000000000000   -2.8464102724769220    8.9853488564659614
   Nb   Ni
     7     6
Direct
  0.0000000000000000  0.0000000000000000 -0.0000000000000000
  0.1639653158342069  0.1639653158342069  0.5081040524974092
  0.8360346841657932  0.8360346841657932  0.4918959475025909
  0.3471842056777776  0.3471842056777776  0.9584463829666144
  0.6528157943222227  0.6528157943222227  0.0415536170333857
  0.4516720371009025  0.4516720371009025  0.6449848886973003
  0.5483279628990976  0.5483279628990976  0.3550151113026996
  0.5826986845315146  0.0910373084172502  0.2352266986337760
  0.0910373084174769  0.0910373084174769  0.2352266986337019
  0.0910373084172502  0.5826986845315146  0.2352266986337760
  0.4173013154684852  0.9089626915827494  0.7647733013662240
  0.9089626915825232  0.9089626915825232  0.7647733013662981
  0.9089626915827494  0.4173013154684852  0.7647733013662240
 
  0.00000000E+00  0.00000000E+00  0.00000000E+00
  0.00000000E+00  0.00000000E+00  0.00000000E+00
  0.00000000E+00  0.00000000E+00  0.00000000E+00
  0.00000000E+00  0.00000000E+00  0.00000000E+00
  0.00000000E+00  0.00000000E+00  0.00000000E+00
  0.00000000E+00  0.00000000E+00  0.00000000E+00
  0.00000000E+00  0.00000000E+00  0.00000000E+00
  0.00000000E+00  0.00000000E+00  0.00000000E+00
  0.00000000E+00  0.00000000E+00  0.00000000E+00
  0.00000000E+00  0.00000000E+00  0.00000000E+00
  0.00000000E+00  0.00000000E+00  0.00000000E+00
  0.00000000E+00  0.00000000E+00  0.00000000E+00
  0.00000000E+00  0.00000000E+00  0.00000000E+00
