Ni12 Ta4 
1.0
4.5403500840377564e+00 0.0000000000000000e+00 0.0000000000000000e+00 
-2.2493006685997350e-09 5.1601542243299754e+00 0.0000000000000000e+00 
-1.6247819626119169e+00 2.5945846247688438e-08 8.4906754436044700e+00 
Ni Ta 
12 4 
Cartesian
  -0.0924459891    2.5710932933    3.1701889624
   2.2593831563    3.8701156780    3.1928930285
   3.0010451632    0.0072385127    1.0450832777
   3.0010451621    2.5728374190    1.0450832777
  -0.0924459880    0.0089813097    3.1701889624
   0.7193789925    1.2900385593    1.0591268548
  -0.0854770441    5.1529145507    7.4455921660
   3.0080141072    5.1511704121    5.3204864812
   2.1961891267    3.8701156910    7.4315485888
  -0.0854770430    2.5873168313    7.4455921660
   0.6561849629    1.2900385723    5.2977824151
   3.0080141083    2.5890609569    5.3204864812
   2.1442306860    1.2900385659    3.2008657728
   0.7459732749    3.8701156716    1.0928348363
   0.7713374332    3.8701156844    5.2898096708
   2.1695948443    1.2900385787    7.3978406073
