Al3 Cu1 
1.0
3.9593877382611193e+00 0.0000000000000000e+00 0.0000000000000000e+00 
7.3718923503104374e-17 3.9593877382611193e+00 0.0000000000000000e+00 
8.9356270912853796e-18 1.7871254182570759e-17 3.9593877382611193e+00 
Al Cu 
3 1 
Cartesian
   3.9593877383    1.9796938691    1.9796938691
   1.9796938691    3.9593877383    1.9796938691
   1.9796938691    1.9796938691    3.9593877383
   0.0000000000    0.0000000000    3.9593877383
