Zr2 Al3 Ni1                             
   1.00000000000000     
     4.4050077077582843   -2.6491232041072679   -0.0066566420875653
     4.4050077077582843    2.6491232041072679   -0.0066566420875653
     2.8183599365861691    0.0000000000000000    4.2987027481066695
   Zr   Al   Ni
     2     3     1
Direct
  0.6260493983605260  0.6260493983605260  0.6260493983602657
  0.3739506016394740  0.3739506016394740  0.3739506016397344
  0.0000000000000000  0.5000000000000000 -0.0000000000000000
  0.5000000000000000  0.0000000000000000 -0.0000000000000000
  0.0000000000000000  0.0000000000000000  0.5000000000000000
  0.0000000000000000  0.0000000000000000 -0.0000000000000000
 
  0.00000000E+00  0.00000000E+00  0.00000000E+00
  0.00000000E+00  0.00000000E+00  0.00000000E+00
  0.00000000E+00  0.00000000E+00  0.00000000E+00
  0.00000000E+00  0.00000000E+00  0.00000000E+00
  0.00000000E+00  0.00000000E+00  0.00000000E+00
  0.00000000E+00  0.00000000E+00  0.00000000E+00
