Zr1 Cu5                                 
   1.00000000000000     
     4.2306743923511378    0.0000021033979842    2.4425832804729799
     1.4102265538426419    3.9887177849806621    2.4425832804729799
    -0.0000000000000000    0.0000000000000000    4.8851665609459598
   Zr   Cu
     1     5
Direct
 -0.0000000000000000 -0.0000000000000000 -0.0000000000000000
  0.2500000000000000  0.2500000000000000  0.2500000000000000
  0.6242214861961917  0.6242214861966171  0.6242214862007438
  0.6242214861961917  0.6242214861966171  0.1273365514064459
  0.1273365514185115  0.6242214861891037  0.6242214861961917
  0.6242214861891037  0.1273365514176606  0.6242214861966171
 
  0.00000000E+00  0.00000000E+00  0.00000000E+00
  0.00000000E+00  0.00000000E+00  0.00000000E+00
  0.00000000E+00  0.00000000E+00  0.00000000E+00
  0.00000000E+00  0.00000000E+00  0.00000000E+00
  0.00000000E+00  0.00000000E+00  0.00000000E+00
  0.00000000E+00  0.00000000E+00  0.00000000E+00
