Ta30 
1.0
5.3483146739987788e+00 0.0000000000000000e+00 0.0000000000000000e+00 
-3.1204272157707903e-16 1.0181679607813884e+01 0.0000000000000000e+00 
5.8428309552418470e-16 1.7674347851010175e-15 1.0181679607869984e+01 
Ta 
30 
Cartesian
   4.0112360055    0.6442233775    2.4358243027
   4.0112360055    2.6550155013    4.4466143901
   1.3370786685    0.3447964709    1.3431060838
   1.3370786685    3.7477337201    4.7460474057
   1.3370786685    1.0157467574    4.0750950829
   5.3414046514    3.2091737773    1.8816660267
   2.6810673596    3.2091737773    1.8816660267
   1.3370786685    7.7458553052    0.6442233775
   1.3370786685    5.7350652177    2.6550155013
   4.0112360055    8.8385735240    0.3447964709
   4.0112360055    5.4356322021    3.7477337201
   4.0112360055    6.1065845249    1.0157467574
   0.0069116271    8.3000135812    3.2091737773
   2.6672473144    8.3000135812    3.2091737773
   4.0112360055   10.1816796078    5.0908398039
   1.3370786685    5.0908398039   10.1816796079
   1.3370786685    2.4358243027    9.5374541940
   1.3370786685    4.4466143901    7.5266641066
   4.0112360055    1.3431060838    9.8368872096
   4.0112360055    4.7460474057    6.4339458877
   4.0112360055    4.0750950829    9.1659348868
   0.0069116271    1.8816660266    6.9725058306
   2.6672473144    1.8816660266    6.9725058306
   4.0112360055    9.5374541940    7.7458553052
   4.0112360055    7.5266641066    5.7350652178
   1.3370786685    9.8368872096    8.8385735241
   1.3370786685    6.4339458877    5.4356322022
   1.3370786685    9.1659348868    6.1065845250
   5.3414046514    6.9725058305    8.3000135812
   2.6810673596    6.9725058305    8.3000135812
