Al10 Ta20 
1.0
5.2113112232862866e+00 0.0000000000000000e+00 0.0000000000000000e+00 
-2.1765776301803787e-08 9.9317911780629977e+00 0.0000000000000000e+00 
2.7079736268761476e-07 -1.2844401126555785e-06 9.9317698405151962e+00 
Al Ta 
10 20 
Cartesian
   2.6056556667    4.3112214039    2.3662540963
   2.6056557240    2.3662586224    4.3112124477
   5.2113112738    9.2771169628    2.5996308240
   5.2113112251    7.3321546843    0.6546764453
   5.2113060120    0.0000811597    0.0000000562
   5.2113114218    0.6546778967    7.3321390165
   5.2113114705    2.5996352093    9.2770973679
   2.6056557362    4.9658949468    4.9658849203
   2.6056558056    5.6205684897    7.5655157442
   2.6056557483    7.5655312712    5.6205573928
   5.2113113219    3.9315288248    3.9315208867
   5.2113113461    1.2776746804    4.6062952614
   0.0000000341    4.6063049924    1.2776725311
   3.9033555324    1.8028880240    1.8028843838
   1.3079557813    1.8028880240    1.8028843838
   2.6056556203    8.8974247885    1.0343640336
   2.6056556078    6.2435708186    0.3595946247
   2.6056556912    9.5722002697    3.6882123891
   1.2976999470    6.7687834372    3.1630005364
   3.9136114191    6.7687834372    3.1630005364
   2.6056558520    1.0343651052    8.8974058069
   2.6056558646    3.6882190750    9.5721801817
   2.6056557811    0.3595945898    6.2435574514
   1.2977000532    3.1630064565    6.7687693041
   3.9136115253    3.1630064565    6.7687693041
   5.2113113737    6.0002610689    6.0002489538
   0.0000001285    8.6541152132    5.3254745791
   0.0000002271    5.3254849012    8.6540973094
   3.9033556910    8.1289018696    8.1288854567
   1.3079559399    8.1289018696    8.1288854567
