Zr6 Ta2 
1.0
6.0731096632841135e+00 0.0000000000000000e+00 0.0000000000000000e+00 
-2.0371523890343739e+00 5.7212473401007733e+00 0.0000000000000000e+00 
-2.2976826963651407e-14 1.8834403309578286e-14 4.9370454696966410e+00 
Zr Ta 
6 2 
Cartesian
   0.0595211768    2.1452961151    1.2342613674
   2.0349204647    4.9455606257    1.2342613674
  -0.9326644617    4.9421049923    1.2342613674
   3.9764360974    3.5759512250    3.7027841023
   2.0010368095    0.7756867144    3.7027841023
   4.9686217360    0.7791423478    3.7027841023
   0.9941391556    3.5828739343    3.7027841023
   3.0418181186    2.1383734058    1.2342613674
