hcp_Al6_Cu3_Nb0_Ni15_Ta0_W0_Zr0         
   1.00000000000000     
     8.0170138420768069    0.0000000000000000    0.0000000000000000
     0.0000000000000000    4.2553394307832129    0.1027238997374989
     0.0000000000000000    0.2000274410959575    8.2818122323584760
   Al   Cu   Ni
     6     3    15
Direct
 -0.0034777521716719 -0.0059603018470941 -0.0248090879487674
  0.1666669999999968  0.1720402022200233  0.2763356857745806
  0.3368107521716752 -0.0059603018470941 -0.0248090879487674
  0.5033593146182007  0.1791938766899293  0.2689036004451499
  0.6666669999999968 -0.0121273368686359 -0.0173136932449355
  0.8299736853818025  0.1791938766899293  0.2689036004451499
 -0.0017962207035452  0.6780399621787534  0.2484442737932796
  0.1666669999999968  0.4895996257182200  0.0018752369519986
  0.3351292207035486  0.6780399621787534  0.2484442737932796
  0.5002589605765764  0.4864811420374270  0.0029138117870033
  0.6666669999999968  0.6823119563394815  0.2490623055533063
  0.8330740394234268  0.4864811420374270  0.0029138117870033
 -0.0014998318546244  0.6348482705731399  0.7474016275616093
  0.1666669999999968  0.5307543764016740  0.5029157916444562
  0.3348328318546274  0.6348482705731399  0.7474016275616093
  0.5026950929964109  0.1504682866996535  0.7454416510641718
  0.6666669999999968  0.0146964420824807  0.5038066057012409
  0.8306379070035922  0.1504682866996535  0.7454416510641718
 -0.0030778363956372  0.0180281979592412  0.5040128914254025
  0.1666669999999968  0.1460715541364178  0.7444922557108614
  0.3364108363956405  0.0180281979592412  0.5040128914254025
  0.5018636128884675  0.5286370599339695  0.5022441731218602
  0.6666669999999968  0.6371841915202605  0.7497199294090731
  0.8314693871115357  0.5286370599339695  0.5022441731218602
 
  0.00000000E+00  0.00000000E+00  0.00000000E+00
  0.00000000E+00  0.00000000E+00  0.00000000E+00
  0.00000000E+00  0.00000000E+00  0.00000000E+00
  0.00000000E+00  0.00000000E+00  0.00000000E+00
  0.00000000E+00  0.00000000E+00  0.00000000E+00
  0.00000000E+00  0.00000000E+00  0.00000000E+00
  0.00000000E+00  0.00000000E+00  0.00000000E+00
  0.00000000E+00  0.00000000E+00  0.00000000E+00
  0.00000000E+00  0.00000000E+00  0.00000000E+00
  0.00000000E+00  0.00000000E+00  0.00000000E+00
  0.00000000E+00  0.00000000E+00  0.00000000E+00
  0.00000000E+00  0.00000000E+00  0.00000000E+00
  0.00000000E+00  0.00000000E+00  0.00000000E+00
  0.00000000E+00  0.00000000E+00  0.00000000E+00
  0.00000000E+00  0.00000000E+00  0.00000000E+00
  0.00000000E+00  0.00000000E+00  0.00000000E+00
  0.00000000E+00  0.00000000E+00  0.00000000E+00
  0.00000000E+00  0.00000000E+00  0.00000000E+00
  0.00000000E+00  0.00000000E+00  0.00000000E+00
  0.00000000E+00  0.00000000E+00  0.00000000E+00
  0.00000000E+00  0.00000000E+00  0.00000000E+00
  0.00000000E+00  0.00000000E+00  0.00000000E+00
  0.00000000E+00  0.00000000E+00  0.00000000E+00
  0.00000000E+00  0.00000000E+00  0.00000000E+00
