Zr10 Al2 Ni8                            
   1.00000000000000     
     7.1996953548295446    0.0000000000000000    0.0000000000000000
     0.0000000000000000    7.1996953548295446   -0.0000000000000000
     0.0000000000000000    0.0000000000000000    6.6260062296870510
   Zr   Al   Ni
    10     2     8
Direct
  0.3167345295796724  0.8167345295796726  0.2500000000000000
  0.6832654704203274  0.1832654704203275  0.2500000000000000
  0.1832654704203275  0.3167345295796724  0.7500000000000000
  0.8167345295796726  0.6832654704203274  0.7500000000000000
  0.8420597296558506  0.6579402703441494  0.2500000000000000
  0.1579402703441494  0.3420597296558506  0.2500000000000000
  0.6579402703441494  0.1579402703441494  0.7500000000000000
  0.3420597296558506  0.8420597296558506  0.7500000000000000
 -0.0000000000000000 -0.0000000000000000 -0.0000000000000000
  0.5000000000000000  0.5000000000000000  0.5000000000000000
 -0.0000000000000000 -0.0000000000000000  0.5000000000000000
  0.5000000000000000  0.5000000000000000 -0.0000000000000000
  0.1248341264282257  0.6257218096475993  0.9682265111882551
  0.8751658735717742  0.3742781903524007  0.9682265111882551
  0.3751658735717744  0.1257218096475994  0.4682265111882558
  0.6248341264282258  0.8742781903524007  0.4682265111882558
  0.8742781903524007  0.3751658735717744  0.5317734888117449
  0.1257218096475994  0.6248341264282258  0.5317734888117449
  0.6257218096475993  0.8751658735717742  0.0317734888117444
  0.3742781903524007  0.1248341264282257  0.0317734888117444
 
  0.00000000E+00  0.00000000E+00  0.00000000E+00
  0.00000000E+00  0.00000000E+00  0.00000000E+00
  0.00000000E+00  0.00000000E+00  0.00000000E+00
  0.00000000E+00  0.00000000E+00  0.00000000E+00
  0.00000000E+00  0.00000000E+00  0.00000000E+00
  0.00000000E+00  0.00000000E+00  0.00000000E+00
  0.00000000E+00  0.00000000E+00  0.00000000E+00
  0.00000000E+00  0.00000000E+00  0.00000000E+00
  0.00000000E+00  0.00000000E+00  0.00000000E+00
  0.00000000E+00  0.00000000E+00  0.00000000E+00
  0.00000000E+00  0.00000000E+00  0.00000000E+00
  0.00000000E+00  0.00000000E+00  0.00000000E+00
  0.00000000E+00  0.00000000E+00  0.00000000E+00
  0.00000000E+00  0.00000000E+00  0.00000000E+00
  0.00000000E+00  0.00000000E+00  0.00000000E+00
  0.00000000E+00  0.00000000E+00  0.00000000E+00
  0.00000000E+00  0.00000000E+00  0.00000000E+00
  0.00000000E+00  0.00000000E+00  0.00000000E+00
  0.00000000E+00  0.00000000E+00  0.00000000E+00
  0.00000000E+00  0.00000000E+00  0.00000000E+00
