Al12 W3 
1.0
5.2540946462213975e+00 0.0000000000000000e+00 0.0000000000000000e+00 
1.0569729776937458e+00 5.1903233510913189e+00 0.0000000000000000e+00 
5.2814050997704998e-01 2.5956247427472130e+00 8.8194913970813538e+00 
Al W 
12 3 
Cartesian
   4.2016413878    7.0461920633    8.8194032022
   1.7713246953    5.1212231026    8.8193591047
   4.4960113395    4.3141770165    7.4826769886
   3.9678728544    1.7189080580    1.3369467009
   1.9350498127    3.5945917552    6.7140935913
   1.4069346724    0.9994014248    2.1054419033
   5.5952667998    6.7720761366    6.6070073267
   5.0667064980    4.1768679920    2.2126516407
   3.9195287398    4.2979199764    4.6967231291
   3.3910667296    1.7027894126    4.1227947264
   0.8335995282    2.5160089895    4.3941440183
   1.3620879441    5.1111671066    4.4252239059
   1.1327383089    5.1448769566    0.0002471627
   2.9356933605    6.1238355030    6.4513168451
   2.4072065424    3.5286774218    2.3679099672
