fcc_Al0_Cu16_Nb0_Ni4_Ta4_W8_Zr0         
   1.00000000000000     
     6.4130570504157074   -0.0000000000000000    0.0000000000000000
    -0.0000000000000000    8.3159951019466583   -0.0000000000000000
     0.0000000000000000    0.0000000000000000    8.3159951019466583
   Cu   Ni   Ta   W 
    16     4     4     8
Direct
  0.0034990251541514  0.5076157624020816 -0.0072850731464642
  0.2465009748458486  0.7423842375979184 -0.0072850731464642
  0.0034990251541514  0.7423842375979184  0.2572850731464643
  0.2465009748458486  0.5076157624020816  0.2572850731464643
  0.4969215763524682  0.5131997582754256  0.0150951999848904
  0.7530784236475321  0.7368002417245744  0.0150951999848904
  0.4969215763524682  0.7368002417245744  0.2349048000151095
  0.7530784236475321  0.5131997582754256  0.2349048000151095
  0.4969215763524682  0.0150951999848904  0.5131997582754256
  0.7530784236475321  0.2349048000151095  0.5131997582754256
  0.4969215763524682  0.2349048000151095  0.7368002417245744
  0.7530784236475321  0.0150951999848904  0.7368002417245744
  0.0034990251541514 -0.0072850731464642  0.5076157624020816
  0.2465009748458486  0.2572850731464643  0.5076157624020816
  0.0034990251541514  0.2572850731464643  0.7423842375979184
  0.2465009748458486 -0.0072850731464642  0.7423842375979184
  0.5264778095358401  0.4887982057459118  0.4887982057459118
  0.7235221904641599  0.7612017942540875  0.4887982057459118
  0.5264778095358401  0.7612017942540875  0.7612017942540875
  0.7235221904641599  0.4887982057459118  0.7612017942540875
 -0.0398316409007507  0.5058334105514452  0.5058334105514452
  0.2898316409007505  0.7441665894485550  0.5058334105514452
 -0.0398316409007507  0.7441665894485550  0.7441665894485550
  0.2898316409007505  0.5058334105514452  0.7441665894485550
  0.5021463369650094 -0.0067058422609357 -0.0067058422609357
  0.7478536630349906  0.2567058422609356 -0.0067058422609357
  0.5021463369650094  0.2567058422609356  0.2567058422609356
  0.7478536630349906 -0.0067058422609357  0.2567058422609356
 -0.0055277942149031 -0.0011667189294235 -0.0011667189294236
  0.2555277942149032  0.2511667189294237 -0.0011667189294236
 -0.0055277942149031  0.2511667189294237  0.2511667189294237
  0.2555277942149032 -0.0011667189294236  0.2511667189294237
 
  0.00000000E+00  0.00000000E+00  0.00000000E+00
  0.00000000E+00  0.00000000E+00  0.00000000E+00
  0.00000000E+00  0.00000000E+00  0.00000000E+00
  0.00000000E+00  0.00000000E+00  0.00000000E+00
  0.00000000E+00  0.00000000E+00  0.00000000E+00
  0.00000000E+00  0.00000000E+00  0.00000000E+00
  0.00000000E+00  0.00000000E+00  0.00000000E+00
  0.00000000E+00  0.00000000E+00  0.00000000E+00
  0.00000000E+00  0.00000000E+00  0.00000000E+00
  0.00000000E+00  0.00000000E+00  0.00000000E+00
  0.00000000E+00  0.00000000E+00  0.00000000E+00
  0.00000000E+00  0.00000000E+00  0.00000000E+00
  0.00000000E+00  0.00000000E+00  0.00000000E+00
  0.00000000E+00  0.00000000E+00  0.00000000E+00
  0.00000000E+00  0.00000000E+00  0.00000000E+00
  0.00000000E+00  0.00000000E+00  0.00000000E+00
  0.00000000E+00  0.00000000E+00  0.00000000E+00
  0.00000000E+00  0.00000000E+00  0.00000000E+00
  0.00000000E+00  0.00000000E+00  0.00000000E+00
  0.00000000E+00  0.00000000E+00  0.00000000E+00
  0.00000000E+00  0.00000000E+00  0.00000000E+00
  0.00000000E+00  0.00000000E+00  0.00000000E+00
  0.00000000E+00  0.00000000E+00  0.00000000E+00
  0.00000000E+00  0.00000000E+00  0.00000000E+00
  0.00000000E+00  0.00000000E+00  0.00000000E+00
  0.00000000E+00  0.00000000E+00  0.00000000E+00
  0.00000000E+00  0.00000000E+00  0.00000000E+00
  0.00000000E+00  0.00000000E+00  0.00000000E+00
  0.00000000E+00  0.00000000E+00  0.00000000E+00
  0.00000000E+00  0.00000000E+00  0.00000000E+00
  0.00000000E+00  0.00000000E+00  0.00000000E+00
  0.00000000E+00  0.00000000E+00  0.00000000E+00
