Zr6 Nb9 Ta6 W3 
1.0
9.9041563930418697e+00 0.0000000000000000e+00 0.0000000000000000e+00 
5.7301700215786113e-09 6.8501753991049181e+00 0.0000000000000000e+00 
5.3411168922427947e-08 -1.5069995671569846e-02 6.6456988511445259e+00 
Zr Nb Ta W 
6 9 6 3 
Cartesian
   1.6506960748    1.6363024737    4.9567410080
   3.3013822192    3.4845354322    6.6389866953
   4.9520782377    1.6363024737    4.9567410080
   9.9041564493    3.4845354322    6.6389866953
   8.2534604007    1.6363024737    4.9567410080
   6.6027742864    3.4845354322    6.6389866953
   3.3013822219    6.7378889096    6.6361091077
   3.3013821953    6.7541700176    3.3260327153
   1.6506960487    1.6669670299    1.7049075204
   4.9520782116    1.6669670299    1.7049075204
   9.9041564520    6.7378889096    6.6361091077
   9.9041564254    6.7541700176    3.3260327153
   6.6027742891    6.7378889096    6.6361091077
   6.6027742625    6.7541700176    3.3260327153
   8.2534603746    1.6669670299    1.7049075204
   1.6506960515    5.1989843297    1.6965671683
   3.3013821927    3.5212402754    3.3334692523
   4.9520782145    5.1989843297    1.6965671683
   9.9041564228    3.5212402754    3.3334692523
   8.2534603775    5.1989843297    1.6965671683
   6.6027742598    3.5212402754    3.3334692523
   1.6506960776    5.1754385490    4.9356807884
   4.9520782405    5.1754385490    4.9356807884
   8.2534604035    5.1754385490    4.9356807884
