Al1 Ni2 Ta1 
1.0
4.1933030777500928e+00 0.0000000000000000e+00 0.0000000000000000e+00 
2.0966486757259610e+00 3.6315072250424469e+00 0.0000000000000000e+00 
2.0966490916545952e+00 1.2105019284757790e+00 3.4238177005724957e+00 
Al Ni Ta 
1 2 1 
Cartesian
   2.0968367610    1.2105415537    3.4238177006
   2.0967256907    1.2105168144    0.8559544251
   6.2900261133    3.6315213912    2.5678632754
   4.1933738054    2.4210154713    1.7119088503
