Al10 W2
1.0
   4.8637094200000002    0.0000000000000000   -0.0000000000000000
  -2.4318552100000002    4.2120963500000004    0.0000000000000000
  -0.0000000000000000    0.0000000000000000    8.8321731200000002
Al W
10 2
direct
  -0.0000000000000000   -0.0000000000000000    0.0000000000000000 Al
  -0.0000000000000000   -0.0000000000000000    0.5000000000000000 Al
   0.3333330000000000    0.6666670000000000    0.0000000000000000 Al
   0.6666670000000000    0.3333330000000000    0.5000000000000000 Al
   0.3374874400000000    0.3374874400000000    0.2500000000000000 Al
   0.0000000000000000    0.3374874400000000    0.7500000000000000 Al
   0.3374874400000000   -0.0000000000000000    0.7500000000000000 Al
   0.6625125600000000    0.0000000000000000    0.2500000000000000 Al
  -0.0000000000000000    0.6625125600000000    0.2500000000000000 Al
   0.6625125600000000    0.6625125600000000    0.7500000000000000 Al
   0.3333330000000000    0.6666670000000000    0.5000000000000000 W
   0.6666670000000000    0.3333330000000000   -0.0000000000000000 W
