Al3 Zr3 Nb18 
1.0
1.0209457420004517e+01 0.0000000000000000e+00 0.0000000000000000e+00 
0.0000000000000000e+00 4.6229084217260770e+00 0.0000000000000000e+00 
0.0000000000000000e+00 0.0000000000000000e+00 9.3436858144495254e+00 
Al Zr Nb 
3 3 18 
Cartesian
   1.7015796398    2.6973977205    4.8190807083
   3.5119716768    2.6972775248    6.9590557267
  10.1006348134    2.6972775248    6.9590557267
   3.4436601972    2.6960385854    2.4041490474
  10.1689462930    2.6960385854    2.4041490474
   1.7015796398    2.6959738647    9.2243482592
   1.7015796398    0.3843670978    2.3712218986
   5.1464343436    0.3848876373    2.3295864346
   8.4661823561    0.3848871750    2.3295864346
   6.8063083498    2.6965286137    2.3227094819
   6.8062981404    0.3855833850    4.6576031300
   3.4564016001    0.3857599801    4.7742310164
   3.4603832885    0.3845940826    9.2753460964
   1.7015796398    0.3856924857    6.9710810503
  10.1562150996    0.3857595178    4.7742310164
  10.1522334112    0.3845945449    9.2753460964
   5.1968588538    2.6971480834    4.7110303255
   5.1619833472    0.3857539703    6.9894227056
   6.8063083498    0.3850984419    9.3230082377
   8.4157578459    2.6971480834    4.7110303255
   5.1646071778    2.6963252057    9.2959022052
   8.4480095219    2.6963252057    9.2959022052
   8.4506333524    0.3857535081    6.9894227056
   6.8062981404    2.6970833627    6.9887779913
