Cu-Zr from LAMMPS dump
1.0
13.8222958678078385 0.0000000000000000 0.0000000000000000
-5.3995648277121786 20.3389514666613920 0.0000000000000000
5.4511491982895297 -5.7604825104526229 18.7706026379875297
Cu Zr
77 179
Direct
0.0562297000000000 0.1561270000000000 0.2072910000000000
0.0688388000000000 0.0328963000000000 0.4557050000000000
0.2345830000000000 0.1986540000000000 0.2765890000000000
0.2922440000000000 0.0919132000000000 0.1982580000000000
0.3611860000000000 0.0692495000000000 0.0753243000000000
0.4840170000000000 0.0532558000000000 0.4433490000000000
0.1183210000000000 0.4885520000000000 0.1266660000000000
0.3947030000000000 0.4109460000000000 0.0286212000000000
0.4906020000000000 0.3654630000000000 0.1958440000000000
0.4219520000000000 0.3056610000000000 0.4209110000000000
0.1277620000000000 0.1060580000000000 0.9034440000000000
0.1301910000000000 0.1134300000000000 0.7913570000000000
0.0147397000000000 0.0325245000000000 0.7030630000000000
0.1734580000000000 0.1857650000000000 0.7148710000000000
0.2702910000000000 0.1692740000000000 0.5875210000000000
0.4192240000000000 0.0971495000000000 0.7116860000000000
0.4258100000000000 0.1554220000000000 0.5365560000000000
0.1942510000000000 0.2190270000000000 0.9918390000000000
0.1739420000000000 0.4139300000000000 0.7045160000000000
0.0312687000000000 0.3107100000000000 0.5673770000000000
0.1626800000000000 0.4059880000000000 0.9106640000000000
0.2866700000000000 0.3474690000000000 0.6802480000000000
0.2618240000000000 0.4428390000000000 0.7903530000000000
0.2234010000000000 0.3556320000000000 0.5749090000000000
0.2910540000000000 0.3169230000000000 0.9385300000000000
0.2199060000000000 0.6195420000000000 0.1432890000000000
0.3091870000000000 0.7685180000000000 0.3830970000000000
0.4066740000000000 0.6581800000000000 0.1462410000000000
0.3191570000000000 0.5193050000000000 0.0202900000000000
0.0828543000000000 0.8145800000000000 0.2401520000000000
0.2763180000000000 0.8561010000000000 0.2684540000000000
0.2228710000000000 0.9692960000000000 0.3592440000000000
0.0528778000000000 0.7148610000000000 0.9707700000000000
0.0627030000000000 0.5035320000000000 0.7310320000000000
0.1795270000000000 0.5506940000000000 0.5309130000000000
0.3527700000000000 0.6895380000000000 0.7198020000000001
0.4717880000000000 0.6351270000000000 0.7400880000000000
0.2470540000000000 0.5162240000000000 0.6459620000000000
0.2355990000000000 0.8699240000000000 0.8030470000000000
0.6732880000000000 0.0292033000000000 0.0653669000000000
0.6245210000000000 0.2928810000000000 0.4950400000000000
0.5044470000000000 0.0075599200000000 0.0198020000000000
0.8173410000000000 0.1490840000000000 0.4331990000000000
0.6952960000000000 0.0400885000000000 0.4565230000000000
0.7353160000000000 0.3822600000000000 0.0364946000000000
0.7580400000000000 0.2873730000000000 0.1256360000000000
0.6222870000000000 0.3116890000000000 0.3703290000000000
0.6557970000000000 0.2759820000000000 0.9212970000000000
0.8335300000000000 0.0859959000000000 0.6936490000000000
0.6968290000000000 0.0795581000000000 0.9576150000000000
0.8901970000000000 0.0340501000000000 0.5597790000000000
0.9255530000000000 0.0242903000000000 0.9870310000000000
0.7625690000000001 0.2119950000000000 0.9941240000000000
0.8530450000000001 0.4270630000000000 0.6298150000000000
0.5679880000000000 0.2850570000000000 0.6181420000000000
0.6207500000000000 0.5146470000000000 0.2275390000000000
0.5887170000000000 0.5965190000000000 0.3432980000000000
0.7228070000000000 0.7706330000000000 0.0258708000000000
0.7930779999999999 0.8248410000000000 0.1411360000000000
0.6363210000000000 0.8663340000000000 0.1650340000000000
0.5183300000000000 0.8143049999999999 0.3605150000000000
0.6156060000000000 0.8214010000000000 0.4625400000000000
0.5396520000000000 0.9435630000000000 0.4638110000000000
0.9802700000000000 0.8952050000000000 0.1806280000000000
0.9027950000000000 0.7928060000000000 0.3697500000000000
0.5881900000000000 0.6907810000000000 0.8223960000000000
0.8303510000000000 0.7727560000000000 0.8455480000000000
0.7340050000000000 0.5342500000000000 0.9555230000000000
0.9540320000000000 0.5400610000000000 0.6804330000000000
0.9540860000000000 0.7786790000000000 0.9037140000000000
0.7663240000000000 0.5089800000000000 0.5002100000000000
0.6147880000000000 0.8538360000000000 0.6076140000000000
0.6102510000000000 0.7982080000000000 0.7916270000000000
0.7265350000000000 0.8167460000000000 0.6588090000000000
0.5094530000000000 0.9406660000000000 0.6080320000000000
0.9397480000000000 0.7733139999999999 0.6564010000000000
0.8974100000000000 0.8984560000000000 0.9211430000000000
0.0590806000000000 0.1304790000000000 0.0379221000000000
0.0544838000000000 0.0212801000000000 0.2203380000000000
0.2372760000000000 0.1908980000000000 0.1242010000000000
0.0223599000000000 0.1709350000000000 0.3544190000000000
0.1603620000000000 0.2878270000000000 0.4373360000000000
0.4486340000000000 0.0394216000000000 0.1588950000000000
0.3863890000000000 0.1804440000000000 0.3102300000000000
0.4288040000000000 0.2213770000000000 0.1715600000000000
0.2444540000000000 0.1902750000000000 0.4781680000000000
0.2637820000000000 0.0546118000000000 0.4800810000000000
0.2042170000000000 0.0833064000000000 0.3435570000000000
0.4452020000000000 0.0496890000000000 0.3169610000000000
0.1459300000000000 0.3626660000000000 0.0524190000000000
0.1471650000000000 0.4218890000000000 0.2524970000000000
0.0542288000000000 0.2748920000000000 0.1623620000000000
0.1125900000000000 0.4158660000000000 0.4144900000000000
0.1124580000000000 0.2884140000000000 0.2848160000000000
0.3069410000000000 0.3422370000000000 0.1543690000000000
0.3030590000000000 0.4950800000000000 0.1554370000000000
0.3317130000000000 0.3321160000000000 0.3164360000000000
0.3076780000000000 0.4202900000000000 0.4760930000000000
0.1009850000000000 0.2333000000000000 0.8847250000000000
0.0703020000000000 0.1090380000000000 0.5980520000000000
0.2815350000000000 0.0894510000000000 0.9722820000000000
0.3000270000000000 0.1628950000000000 0.8383290000000000
0.4008950000000000 0.2118130000000000 0.6761580000000000
0.2113640000000000 0.0013411900000000 0.8079580000000000
0.4164330000000000 0.2616520000000000 0.9732060000000000
0.2470290000000000 0.0562604000000000 0.6646350000000000
0.2524830000000000 0.3046380000000000 0.7975790000000000
0.0994502000000000 0.4376320000000000 0.5786030000000000
0.1380190000000000 0.2603970000000000 0.6490800000000000
0.0489209000000000 0.3349300000000000 0.7940050000000000
0.0735440000000000 0.4988130000000000 0.8620500000000000
0.3718330000000000 0.4320870000000000 0.9005060000000000
0.3942620000000000 0.2867750000000000 0.5557620000000000
0.4074030000000000 0.4483900000000000 0.6227700000000000
0.4553310000000000 0.3828970000000000 0.7404870000000000
0.4727990000000000 0.2942460000000000 0.8149210000000000
0.0783131000000000 0.5649490000000000 0.2653270000000000
0.1244540000000000 0.6807040000000000 0.0928692000000000
0.2039880000000000 0.7272570000000000 0.2547050000000000
0.0806739000000000 0.6835080000000000 0.4053030000000000
0.1289210000000000 0.5233390000000000 0.0108393000000000
0.3898450000000000 0.5557180000000000 0.4385590000000000
0.3488030000000000 0.6463540000000000 0.0216173000000000
0.2953040000000000 0.6284350000000000 0.2869840000000000
0.4465290000000000 0.6733960000000000 0.3605780000000000
0.1609800000000000 0.5669020000000000 0.4052760000000000
0.4045630000000000 0.5036940000000000 0.2734930000000000
0.1041940000000000 0.8506040000000000 0.3954690000000000
0.2439330000000000 0.9630870000000000 0.2122500000000000
0.1567620000000000 0.8310940000000000 0.0973214000000000
0.3400920000000000 0.9044380000000000 0.0484683000000000
0.1785060000000000 0.9816030000000000 0.0742040000000000
0.0384569000000000 0.9410440000000000 0.3236420000000000
0.3115000000000000 0.7874580000000000 0.1368230000000000
0.4275510000000000 0.8310390000000000 0.4951420000000000
0.4225220000000000 0.7797530000000000 0.2564060000000000
0.4593580000000000 0.9040530000000000 0.2040720000000000
0.3565910000000000 0.8978340000000000 0.3870800000000000
0.0111132000000000 0.6222880000000000 0.8432990000000000
0.1488160000000000 0.6269470000000000 0.6587320000000000
0.0477764000000000 0.6605320000000000 0.5501350000000000
0.1688740000000000 0.7350200000000000 0.8074290000000000
0.3993370000000000 0.7273480000000000 0.8382340000000000
0.2138500000000000 0.6614180000000000 0.9272430000000000
0.4125210000000000 0.7747710000000000 0.9816520000000000
0.2444390000000000 0.5726710000000000 0.7636840000000000
0.3658210000000000 0.5703940000000000 0.8615310000000000
0.3822540000000000 0.6208080000000000 0.5918070000000000
0.0840409000000000 0.9656620000000000 0.9483160000000000
0.2910030000000000 0.6917600000000000 0.5074850000000000
0.2007440000000000 0.8346560000000000 0.9400320000000000
0.0522249000000000 0.8654530000000000 0.8002170000000000
0.3621270000000000 0.9731780000000000 0.5253170000000000
0.3090960000000000 0.9054700000000000 0.6536000000000000
0.1365570000000000 0.7769180000000000 0.6716839999999999
0.0810799000000000 0.9135870000000000 0.6796610000000000
0.1907500000000000 0.8352410000000000 0.5304830000000000
0.0958022000000000 0.9637590000000000 0.5549910000000000
0.3746610000000000 0.7913260000000000 0.6402020000000000
0.4100180000000000 0.8451560000000000 0.7932910000000000
0.3432320000000000 0.9642900000000000 0.9461090000000000
0.4169940000000000 0.9734280000000000 0.7719210000000000
0.6216469999999999 0.1541430000000000 0.1059810000000000
0.6032180000000000 0.1633160000000000 0.2629890000000000
0.6752500000000000 0.0127121000000000 0.1877580000000000
0.5267560000000000 0.1822330000000000 0.4097490000000000
0.8196980000000000 0.1218940000000000 0.0925187000000000
0.7695700000000000 0.2323160000000000 0.3707280000000000
0.9753340000000000 0.0273522000000000 0.0981516000000000
0.6790720000000000 0.0780958000000000 0.3395290000000000
0.8505190000000000 0.1275570000000000 0.2344340000000000
0.9570060000000000 0.2958210000000000 0.4552900000000000
0.9080180000000000 0.0339039000000000 0.3938860000000000
0.5398070000000000 0.4444080000000000 0.3278030000000000
0.5998280000000000 0.2998300000000000 0.2361370000000000
0.5128730000000000 0.4478300000000000 0.1232980000000000
0.5726160000000000 0.3005140000000000 0.0739691000000000
0.7413050000000000 0.4167150000000000 0.1748370000000000
0.5667520000000000 0.4436460000000000 0.4747110000000000
0.7532820000000000 0.4292190000000000 0.3406920000000000
0.8147330000000000 0.2735820000000000 0.2318770000000000
0.9629060000000000 0.2634270000000000 0.0404677000000000
0.9566300000000000 0.4133220000000000 0.1817910000000000
0.8050460000000000 0.3927660000000000 0.4483010000000000
0.9479560000000000 0.3869420000000000 0.3134940000000000
0.5147430000000000 0.1600040000000000 0.8370880000000001
0.5641490000000000 0.0311031000000000 0.8731080000000000
0.5149740000000000 0.0555994000000000 0.5895160000000000
0.6414609999999999 0.0474579000000000 0.7031660000000000
0.6341470000000000 0.1610770000000000 0.5118950000000000
0.6106320000000000 0.2094660000000000 0.6891940000000000
0.5059270000000000 0.1451100000000000 0.9894620000000000
0.7382300000000001 0.1532830000000000 0.8534210000000000
0.9692180000000000 0.1789750000000000 0.7752610000000000
0.9012580000000000 0.2221900000000000 0.6834030000000000
0.8690700000000000 0.2835620000000000 0.9137250000000000
0.8035010000000000 0.0169607000000000 0.7805270000000000
0.9178180000000000 0.1540330000000000 0.9265190000000000
0.9990680000000000 0.1720920000000000 0.5132440000000000
0.7652580000000000 0.1146950000000000 0.5788620000000000
0.9806920000000000 0.0048950500000000 0.8440370000000000
0.5893990000000000 0.4046140000000000 0.9449870000000000
0.7348980000000001 0.2649770000000000 0.7866680000000000
0.7872620000000000 0.2873470000000000 0.5941000000000000
0.6839800000000000 0.3802540000000000 0.7369280000000000
0.6469630000000000 0.4255570000000000 0.6075210000000000
0.8609690000000000 0.4070790000000000 0.8689590000000000
0.9339490000000000 0.3678990000000000 0.7057260000000000
0.9636820000000000 0.4085980000000000 0.9956820000000000
0.5092710000000000 0.5572140000000000 0.0279658000000000
0.6915559999999999 0.6553690000000000 0.0815130000000000
0.5200600000000000 0.6019580000000000 0.1909010000000000
0.6926300000000000 0.7307970000000000 0.3632430000000000
0.5218830000000000 0.7004040000000000 0.4901070000000000
0.7674569999999999 0.6425419999999999 0.2244560000000000
0.7506740000000000 0.5162270000000000 0.0761877000000000
0.8048810000000000 0.5486610000000000 0.2819720000000000
0.9799080000000000 0.6886400000000000 0.2451970000000000
0.8618730000000000 0.6683530000000000 0.4096140000000000
0.6691279999999999 0.5928460000000000 0.4478520000000000
0.8963340000000000 0.7036520000000001 0.1110510000000000
0.9398200000000000 0.5422480000000000 0.1329800000000000
0.9418420000000000 0.5468610000000000 0.4079930000000000
0.6455450000000000 0.7766130000000000 0.2383750000000000
0.5462930000000000 0.9092300000000000 0.0676754000000000
0.5401380000000000 0.7535120000000000 0.0830833000000000
0.5807710000000000 0.9381140000000000 0.3200740000000000
0.7657920000000000 0.9218690000000000 0.0590975000000000
0.7370370000000001 0.8914980000000000 0.3739380000000000
0.8129999999999999 0.9520840000000000 0.2286380000000000
0.9017480000000000 0.9041190000000000 0.4718000000000000
0.8805510000000000 0.8065220000000000 0.2574380000000000
0.9660260000000001 0.8638360000000000 0.0415234000000000
0.5764270000000000 0.6637320000000000 0.9396930000000000
0.6078590000000000 0.5822619999999999 0.6070580000000000
0.5504990000000000 0.5289020000000000 0.7429920000000000
0.7286270000000000 0.7054070000000000 0.7212769999999999
0.5805169999999999 0.5048880000000000 0.8645110000000000
0.7482390000000000 0.6348620000000000 0.8215130000000000
0.8257350000000000 0.6695060000000000 0.9466440000000000
0.9459300000000000 0.5776050000000000 0.9950180000000000
0.9563090000000000 0.6840610000000000 0.7320770000000000
0.8565320000000000 0.5128390000000000 0.7926930000000000
0.8135850000000000 0.6657320000000000 0.5606010000000000
0.7895960000000000 0.5513060000000000 0.6656960000000000
0.9753510000000000 0.5052040000000000 0.5236860000000000
0.5435480000000000 0.7360350000000000 0.6571680000000000
0.8621910000000000 0.9211380000000000 0.6283090000000000
0.7495410000000000 0.9661380000000001 0.9199320000000000
0.6614200000000000 0.8029410000000000 0.9329790000000000
0.6216480000000000 0.9078300000000000 0.7487360000000000
0.7449840000000000 0.7710939999999999 0.5191280000000000
0.7072480000000000 0.9618700000000000 0.5594890000000000
0.5252599999999999 0.8784690000000001 0.9055700000000000
0.8335540000000000 0.8725150000000000 0.7763340000000000
0.9600490000000000 0.7965120000000000 0.5249950000000000
