Zr14 Ni20                               
   1.00000000000000     
     4.5923065494431121   -6.2099858418571277   -0.0000000000000000
     4.5923065494431121    6.2099858418571277   -0.0000000000000000
     0.0000000000000000    0.0000000000000000    9.1777244828229794
   Zr   Ni
    14    20
Direct
  0.1918461396713661  0.8081538603286340 -0.0000000000000000
  0.6918461396713660  0.3081538603286340  0.5000000000000000
  0.3139524869192715  0.3139524869192715  0.6864054178832530
  0.6860475130807285  0.6860475130807285  0.3135945821167468
  0.8081538603286340  0.1918461396713661 -0.0000000000000000
  0.0013670166286003  0.5013670166286004  0.7500000000000000
  0.9986329833713996  0.4986329833713997  0.2500000000000000
  0.8139524869192715  0.8139524869192715  0.8135945821167470
  0.5000000000000000  0.5000000000000000 -0.0000000000000000
  0.4986329833713997  0.9986329833713996  0.2500000000000000
  0.3081538603286340  0.6918461396713660  0.5000000000000000
  0.5013670166286004  0.0013670166286003  0.7500000000000000
  0.1860475130807285  0.1860475130807285  0.1864054178832532
 -0.0000000000000000 -0.0000000000000000  0.5000000000000000
  0.8944319001663406  0.8944319001663406  0.1048031916940060
  0.6381044336899616  0.3472452657711383  0.2075088924732212
  0.0627915506353750  0.3533951086101520  0.4928443834956502
  0.6527547342288618  0.3618955663100383  0.7924911075267789
  0.8472452657711382  0.1381044336899615  0.2924911075267788
  0.1381044336899615  0.8472452657711382  0.2924911075267788
  0.6055680998336594  0.6055680998336594  0.6048031916940059
  0.4372084493646249  0.1466048913898480  0.9928443834956503
  0.3618955663100383  0.6527547342288618  0.7924911075267789
  0.1527547342288617  0.8618955663100384  0.7075088924732211
  0.1466048913898480  0.4372084493646249  0.9928443834956503
  0.5627915506353751  0.8533951086101520  0.0071556165043498
  0.9372084493646249  0.6466048913898480  0.5071556165043497
  0.6466048913898480  0.9372084493646249  0.5071556165043497
  0.1055680998336594  0.1055680998336594  0.8951968083059941
  0.3944319001663406  0.3944319001663406  0.3951968083059940
  0.8533951086101520  0.5627915506353751  0.0071556165043498
  0.3533951086101520  0.0627915506353750  0.4928443834956502
  0.8618955663100384  0.1527547342288617  0.7075088924732211
  0.3472452657711383  0.6381044336899616  0.2075088924732212
 
  0.00000000E+00  0.00000000E+00  0.00000000E+00
  0.00000000E+00  0.00000000E+00  0.00000000E+00
  0.00000000E+00  0.00000000E+00  0.00000000E+00
  0.00000000E+00  0.00000000E+00  0.00000000E+00
  0.00000000E+00  0.00000000E+00  0.00000000E+00
  0.00000000E+00  0.00000000E+00  0.00000000E+00
  0.00000000E+00  0.00000000E+00  0.00000000E+00
  0.00000000E+00  0.00000000E+00  0.00000000E+00
  0.00000000E+00  0.00000000E+00  0.00000000E+00
  0.00000000E+00  0.00000000E+00  0.00000000E+00
  0.00000000E+00  0.00000000E+00  0.00000000E+00
  0.00000000E+00  0.00000000E+00  0.00000000E+00
  0.00000000E+00  0.00000000E+00  0.00000000E+00
  0.00000000E+00  0.00000000E+00  0.00000000E+00
  0.00000000E+00  0.00000000E+00  0.00000000E+00
  0.00000000E+00  0.00000000E+00  0.00000000E+00
  0.00000000E+00  0.00000000E+00  0.00000000E+00
  0.00000000E+00  0.00000000E+00  0.00000000E+00
  0.00000000E+00  0.00000000E+00  0.00000000E+00
  0.00000000E+00  0.00000000E+00  0.00000000E+00
  0.00000000E+00  0.00000000E+00  0.00000000E+00
  0.00000000E+00  0.00000000E+00  0.00000000E+00
  0.00000000E+00  0.00000000E+00  0.00000000E+00
  0.00000000E+00  0.00000000E+00  0.00000000E+00
  0.00000000E+00  0.00000000E+00  0.00000000E+00
  0.00000000E+00  0.00000000E+00  0.00000000E+00
  0.00000000E+00  0.00000000E+00  0.00000000E+00
  0.00000000E+00  0.00000000E+00  0.00000000E+00
  0.00000000E+00  0.00000000E+00  0.00000000E+00
  0.00000000E+00  0.00000000E+00  0.00000000E+00
  0.00000000E+00  0.00000000E+00  0.00000000E+00
  0.00000000E+00  0.00000000E+00  0.00000000E+00
  0.00000000E+00  0.00000000E+00  0.00000000E+00
  0.00000000E+00  0.00000000E+00  0.00000000E+00
