POSCAR file written by OVITO Basic 3.9.4
1
6.9814690381 0.0 0.0
-0.1126442611 6.6824027428 0.0
0.0380762568 -0.0910760915 15.3872171753
Al Cu W Zr Nb Ta 
1 3 14 5 18 6 
Cartesian
1.376993443 5.0090244833 1.851974546
0.1312711204 3.4119854471 6.714524546
3.4487718771 3.3135425747 10.326072546
1.6815256067 5.0528893912 6.715745646
-0.0387447429 0.0533444833 3.350834546
1.592493443 1.4409844833 4.724284546
4.973973443 1.6477044833 4.881584546
3.5465971608 6.5025328976 9.992032546
3.3880134622 3.6920291392 13.627542546
1.7644789623 5.0211925856 10.026002546
4.9943511187 4.9461979626 10.484952546
1.6401006982 6.4500963238 8.275622546
1.9716599803 3.154888083 8.396982546
5.147475502 0.0920035058 8.261172546
4.8521736041 -0.0274351147 11.798002546
0.1242041308 1.5396957693 11.962742546
0.1491033151 5.1563230663 8.404622546
3.564358761 1.8066137451 12.161802546
0.1081469889 3.3036275132 0.0553651482
3.4593351749 3.4597575132 0.0700851482
3.249073443 3.3539144833 3.305194546
1.575003443 1.5923644833 1.595524546
5.105193443 5.0199844833 4.903054546
6.9427242952 6.446166185 13.555142546
6.89572712 6.5945644352 10.354042546
6.9157853977 3.4720834238 10.426972546
3.4676629908 6.3572124669 13.699812546
1.7571371244 1.5060859806 6.729322746
1.8940153382 1.3658415845 10.147122546
5.4295809169 1.6612459634 13.671012546
4.8589977483 1.8745246482 10.420082546
5.3678530029 4.8534561589 13.600952546
1.9357791007 6.397262001 11.815032546
1.7947499247 3.3351251919 11.779092546
5.4510322613 3.3711877661 8.600462546
5.661790072 3.372513596 11.949342546
0.0623795492 1.5623674611 8.842522546
0.2912770647 5.2255124483 12.065472546
3.6624946609 1.5990550694 8.031182546
3.7765378763 5.0618008624 8.553392546
3.3412045393 4.8779271914 12.090222546
6.744105629 3.1550444833 3.378054546
3.5105351749 0.0177875132 0.0123151482
3.145329182 6.5934752261 3.234424546
1.550393443 5.0028344833 4.893424546
5.052143443 1.6950444833 1.668874546
5.325613443 5.2362844833 1.718494546
