Al1 Cu3 
1.0
3.6892520267425666e+00 0.0000000000000000e+00 0.0000000000000000e+00 
-1.0719624870682660e-17 3.6892520267425657e+00 0.0000000000000000e+00 
-9.3796717618473263e-18 -9.7146600390561620e-18 3.6892520267425666e+00 
Al Cu 
1 3 
Cartesian
   3.6892520267    3.6892520267    3.6892520267
   1.8446260134    1.8446260134    3.6892520267
   1.8446260134   -0.0000000000    1.8446260134
   3.6892520267    1.8446260134    1.8446260134
