Ni12 Zr4 W16 
1.0
7.7960316888195011e+00 0.0000000000000000e+00 0.0000000000000000e+00 
0.0000000000000000e+00 7.7068752875652704e+00 0.0000000000000000e+00 
0.0000000000000000e+00 0.0000000000000000e+00 7.7960179842477109e+00 
Ni Zr W 
12 4 16 
Cartesian
   4.0166870388    3.9055977757    3.9898071039
   5.7283525722    5.7279963337    3.9898071039
   4.0166870388    5.7279963337    5.7552153764
   5.7283525722    3.9055977757    5.7552153764
   0.0917967139    3.9055977757    0.1186694266
   1.8572096491    5.7279963337    0.1186694266
   0.0917967139    5.7279963337    1.8303335103
   1.8572096491    3.9055977757    1.8303335103
   3.8550597098    4.0426645527    7.7530619252
   5.8899799012    5.5909295567    7.7530619252
   3.8550597098    5.5909295567    1.9919605552
   5.8899799012    4.0426645527    1.9919605552
   3.8305255981    7.4273777484    7.7285278566
   5.9145140129    2.2062163611    7.7285278566
   3.8305255981    2.2062240679    2.0164946238
   5.9145140129    7.4273777484    2.0164946238
   3.8063189197    7.5881508738    3.9787601464
   5.9387206913    2.0454432357    3.9787523504
   3.8063189197    2.0454432357    5.7662623339
   5.9387206913    7.5881508738    5.7662623339
   0.0699070941    7.4711528000    3.9679158854
   1.8791009061    2.1624413094    3.9679158854
   0.0699070162    2.1624413094    5.7771065949
   1.8791009061    7.4711528000    5.7771065949
   0.0807473982    7.5881508738    7.7043212207
   1.8682566260    2.0454432357    7.7043212207
   0.0807473982    2.0454432357    2.0407012596
   1.8682566260    7.5881508738    2.0407012596
   7.6761832937    4.1382760475    3.7781608077
   2.0688563174    5.4953257688    3.7781608077
   7.6761832937    5.4953257688    5.9668616727
   2.0688563174    4.1382683407    5.9668616727
