Al2 Ni8 Zr10 
1.0
7.1881391681880586e+00 0.0000000000000000e+00 0.0000000000000000e+00 
-1.6159964751244284e-05 7.1881474931290175e+00 0.0000000000000000e+00 
8.6633417272237785e-06 -9.5845374068545028e-06 6.6366763924046470e+00 
Al Ni Zr 
2 8 10 
Cartesian
   7.1880770229    7.1881427009    3.3183381962
   3.5940701674    3.5940713502    6.6366763924
   0.8867054975    4.4966370902    6.3761138406
   6.3014341572    2.6914919865    6.3761138406
   2.7073642632    0.9025681359    3.0577756444
   4.4807667281    6.2855705253    3.0577756444
   6.2855662469    2.7073602677    3.5789007480
   0.9025661049    4.4807768883    3.5789007480
   4.4966272642    6.3014388065    0.2605632155
   2.6914964243    0.8867079340    0.2605625518
   2.2255951079    5.8196799535    1.6591690981
   4.9625322320    1.3684627473    1.6591690981
   1.3684650526    2.2256014147    4.9775072943
   5.8196709506    4.9625317016    4.9775072943
   6.0588237349    4.7233796386    1.6591690981
   1.1293036050    2.4647630622    1.6591690981
   4.7233805231    1.1293010998    4.9775072943
   2.4647554802    6.0588320165    4.9775072943
   7.1881101072    7.1881091560    6.6366763924
   3.5940658358    3.5940689543    3.3183381962
