Al3 Ni3 Cu9 Nb3 Ta6 
1.0
8.3272677750485684e+00 0.0000000000000000e+00 0.0000000000000000e+00 
3.6985313432392304e-05 6.1490380665841053e+00 0.0000000000000000e+00 
3.8323948092342975e-05 -6.2203553706509877e-03 6.8550580039994982e+00 
Al Ni Cu Nb Ta 
3 3 9 3 6 
Cartesian
   1.3879151848    1.1727485316    4.8949844139
   4.1636683340    1.1727485379    4.8949775588
   6.9394214833    1.1727485316    4.8949844139
   1.3879393467    4.9325175236    5.1715448740
   4.1636924960    4.9325175236    5.1715448740
   6.9394456453    4.9325175236    5.1715448740
   1.3879165670    4.3820026870    1.6925823718
   1.3879019268    1.7453865793    1.9103332893
   2.7758069156    6.0298671185    3.1268044624
   4.1636550761    1.7453865793    1.9103332893
   0.0000537961    6.0298671185    3.1268044624
   4.1636697163    4.3820026870    1.6925823718
   6.9394228655    4.3820026870    1.6925823718
   6.9394082253    1.7453927283    1.9103332893
   5.5515683921    6.0298671185    3.1268044624
   0.0000412760    3.2812055532    3.7350400490
   2.7757937867    3.2812055470    3.7350469041
   5.5515552632    3.2812055532    3.7350400490
   2.7757546671    0.0341236420    0.2345492371
   2.7758083925    2.9934133097    6.6543898910
   0.0000019585    0.0341237649    0.2345492371
   8.3273230183    2.9934133097    6.6543898910
   5.5515161436    0.0341236420    0.2345492371
   5.5515698690    2.9934133097    6.6543898910
