Zr12 Cu32                               
   1.00000000000000     
     7.9074351738252782   -0.0000000000000000    0.0000000000000000
    -0.0000000000000000    8.2112971238131180    0.0000000000000000
     0.0000000000000000    0.0000000000000000   10.0130609542787088
   Zr   Cu
    12    32
Direct
  0.5613309036325885  0.4473325255657472  0.3596017683338611
  0.0613309036325884  0.0526674744342457  0.1403982316661388
  0.4386690963674116  0.9473325255657472  0.6403982316661387
  0.9386690963674115  0.5526674744342457  0.8596017683338613
  0.4386690963674116  0.5526674744342457  0.6403982316661387
  0.9386690963674115  0.9473325255657472  0.8596017683338613
  0.5613309036325885  0.0526674744342457  0.3596017683338611
  0.0613309036325884  0.4473325255657472  0.1403982316661388
  0.9618623172767895  0.2500000000000000  0.4526126546237875
  0.4618623172767895  0.2500000000000000  0.0473873453762124
  0.0381376827232105  0.7500000000000000  0.5473873453762125
  0.5381376827232105  0.7500000000000000  0.9526126546237875
  0.8785039305331606  0.5780646825792278  0.3405343979089431
  0.3785039305331606  0.9219353174207722  0.1594656020910568
  0.1214960694668395  0.0780646825792278  0.6594656020910568
  0.6214960694668394  0.4219353174207721  0.8405343979089432
  0.1214960694668395  0.4219353174207721  0.6594656020910568
  0.6214960694668394  0.0780646825792278  0.8405343979089432
  0.8785039305331606  0.9219353174207722  0.3405343979089431
  0.3785039305331606  0.5780646825792278  0.1594656020910568
  0.6990459757595271  0.5000244980352219  0.0934166589600736
  0.1990459757595272 -0.0000244980352217  0.4065833410399263
  0.3009540242404728  0.0000244980352217  0.9065833410399268
  0.8009540242404729  0.4999755019647782  0.5934166589600732
  0.3009540242404728  0.4999755019647782  0.9065833410399268
  0.8009540242404729  0.0000244980352217  0.5934166589600732
  0.6990459757595271 -0.0000244980352217  0.0934166589600736
  0.1990459757595272  0.5000244980352219  0.4065833410399263
  0.7834828308990945  0.2500000000000000  0.2260688513669090
  0.2834828308990941  0.2500000000000000  0.2739311486330910
  0.2165171691009057  0.7500000000000000  0.7739311486330908
  0.7165171691009055  0.7500000000000000  0.7260688513669092
  0.6163180728496505  0.2500000000000000  0.5983553822347648
  0.1163180728496504  0.2500000000000000  0.9016446177652352
  0.3836819271503495  0.7500000000000000  0.4016446177652352
  0.8836819271503495  0.7500000000000000  0.0983553822347648
  0.8697161125352815  0.2500000000000000  0.7342525662630833
  0.3697161125352811  0.2500000000000000  0.7657474337369167
  0.1302838874647187  0.7500000000000000  0.2657474337369168
  0.6302838874647185  0.7500000000000000  0.2342525662630833
  0.8232326336656047  0.2500000000000000  0.9829545149895583
  0.3232326336656046  0.2500000000000000  0.5170454850104417
  0.1767673663343955  0.7500000000000000  0.0170454850104416
  0.6767673663343953  0.7500000000000000  0.4829545149895584
 
  0.00000000E+00  0.00000000E+00  0.00000000E+00
  0.00000000E+00  0.00000000E+00  0.00000000E+00
  0.00000000E+00  0.00000000E+00  0.00000000E+00
  0.00000000E+00  0.00000000E+00  0.00000000E+00
  0.00000000E+00  0.00000000E+00  0.00000000E+00
  0.00000000E+00  0.00000000E+00  0.00000000E+00
  0.00000000E+00  0.00000000E+00  0.00000000E+00
  0.00000000E+00  0.00000000E+00  0.00000000E+00
  0.00000000E+00  0.00000000E+00  0.00000000E+00
  0.00000000E+00  0.00000000E+00  0.00000000E+00
  0.00000000E+00  0.00000000E+00  0.00000000E+00
  0.00000000E+00  0.00000000E+00  0.00000000E+00
  0.00000000E+00  0.00000000E+00  0.00000000E+00
  0.00000000E+00  0.00000000E+00  0.00000000E+00
  0.00000000E+00  0.00000000E+00  0.00000000E+00
  0.00000000E+00  0.00000000E+00  0.00000000E+00
  0.00000000E+00  0.00000000E+00  0.00000000E+00
  0.00000000E+00  0.00000000E+00  0.00000000E+00
  0.00000000E+00  0.00000000E+00  0.00000000E+00
  0.00000000E+00  0.00000000E+00  0.00000000E+00
  0.00000000E+00  0.00000000E+00  0.00000000E+00
  0.00000000E+00  0.00000000E+00  0.00000000E+00
  0.00000000E+00  0.00000000E+00  0.00000000E+00
  0.00000000E+00  0.00000000E+00  0.00000000E+00
  0.00000000E+00  0.00000000E+00  0.00000000E+00
  0.00000000E+00  0.00000000E+00  0.00000000E+00
  0.00000000E+00  0.00000000E+00  0.00000000E+00
  0.00000000E+00  0.00000000E+00  0.00000000E+00
  0.00000000E+00  0.00000000E+00  0.00000000E+00
  0.00000000E+00  0.00000000E+00  0.00000000E+00
  0.00000000E+00  0.00000000E+00  0.00000000E+00
  0.00000000E+00  0.00000000E+00  0.00000000E+00
  0.00000000E+00  0.00000000E+00  0.00000000E+00
  0.00000000E+00  0.00000000E+00  0.00000000E+00
  0.00000000E+00  0.00000000E+00  0.00000000E+00
  0.00000000E+00  0.00000000E+00  0.00000000E+00
  0.00000000E+00  0.00000000E+00  0.00000000E+00
  0.00000000E+00  0.00000000E+00  0.00000000E+00
  0.00000000E+00  0.00000000E+00  0.00000000E+00
  0.00000000E+00  0.00000000E+00  0.00000000E+00
  0.00000000E+00  0.00000000E+00  0.00000000E+00
  0.00000000E+00  0.00000000E+00  0.00000000E+00
  0.00000000E+00  0.00000000E+00  0.00000000E+00
  0.00000000E+00  0.00000000E+00  0.00000000E+00
