Al6 Ni6 Cu3 Zr9 
1.0
1.1863947406562364e+01 0.0000000000000000e+00 0.0000000000000000e+00 
-2.2708464506337664e-05 6.2330717382415903e+00 0.0000000000000000e+00 
-1.1395753729015472e-04 6.4428304709890960e-01 5.4558624204509911e+00 
Al Ni Cu Zr 
6 6 3 9 
Cartesian
   1.9772452928    1.9859767349    3.7148367076
   3.9545592750    6.3423624865    3.0698228288
   5.9318904737    1.9859767349    3.7148367076
  11.8638615007    6.3423624865    3.0698228288
   9.8865356546    1.9859767349    3.7148367076
   7.9092163199    6.3423624865    3.0698228288
   1.9772139032    5.8185575851    4.5667096101
   1.9773026179    1.9102403231    0.9260944548
   5.9318590841    5.8185575851    4.5667096101
   5.9319477988    1.9102403231    0.9260944548
   9.8865042649    5.8185575851    4.5667096101
   9.8865929797    1.9102403231    0.9260944548
   3.9545876205    2.5790533682    2.3544228689
  11.8638898462    2.5790533682    2.3544228689
   7.9092446653    2.5790533682    2.3544228689
   1.9772716809    4.5207900015    1.9734727313
   3.9546384002    0.3242897462    0.2737069780
   3.9545293584    4.0281535811    4.9443862303
  11.8638315841    4.0281535811    4.9443862303
  11.8639406259    0.3242897462    0.2737069780
   5.9319168618    4.5207900015    1.9734727313
   7.9091864032    4.0281535811    4.9443862303
   7.9092954450    0.3242897462    0.2737069780
   9.8865620427    4.5207900015    1.9734727313
