Ni3 Cu1 
1.0
2.4985724728703476e+00 0.0000000000000000e+00 0.0000000000000000e+00 
-1.2492862361882702e+00 2.1638272350795282e+00 0.0000000000000000e+00 
-8.7126983640562538e-16 -2.2175822239806490e-16 8.2677727357256270e+00 
Ni Cu 
3 1 
Cartesian
   0.9369634281    0.9015954026    6.1678163353
   2.1862492897    0.1803188641    4.1338863679
   0.9369634281    0.9015954026    2.0999564005
   2.1862492897    0.1803188641    0.0000000000
