Ni23 Zr6 
1.0
8.1407768406671455e+00 0.0000000000000000e+00 0.0000000000000000e+00 
4.0704816971454516e+00 7.0502562672523048e+00 0.0000000000000000e+00 
4.0704763672483812e+00 2.3500381315804586e+00 6.6470604754976303e+00 
Ni Zr 
23 6 
Cartesian
   1.9855819933    1.1463330010    0.8105757897
   2.7835524191    3.0930752190    2.1871554259
   4.0704596390    2.3500577817    4.2154195182
   4.0704849783    4.7001307489    3.3235235907
   8.1390091155    0.0000116408    0.0000005962
   4.0705745132    2.3501409805    0.0855935330
   4.0704889774    0.8640542121    2.1871554259
   6.1556094499    1.1462366480    0.8105026720
   5.3573583345    3.0930587685    2.1871487789
   6.1059004599    3.5252659060    0.0000905642
   6.1057452135    1.1750318008    3.3235036495
   8.1409540847    2.3501551982    6.6470338873
  12.2113010283    4.6425898292    5.8365112741
   6.1059676522    5.8753237213    6.6470072990
   6.1060793637    8.2252400813    3.3235900613
   4.0704786503    4.7576599180    0.8105425544
  10.1265162105    8.2539684483    5.8364647446
  10.9243928515    6.3071980290    4.4599050496
  12.2112834068    7.0502366171    2.4316409573
  12.2114693357    7.0502706878    6.5614396895
  12.2113855420    8.5362376016    4.4599116966
  14.2964948262    8.2540648012    5.8365378623
  13.4981930689    6.3072144796    4.4599116966
   6.3931392099    3.6910620681    4.7505810042
   8.1408407567    2.6819862445    1.8964794713
   9.8886015474    3.6910526677    4.7505942983
   6.3931333576    5.7092276305    1.8964861184
   8.1409267111    6.7182752531    4.7505876512
   9.8886079062    5.7092299807    1.8964728243
