fcc_Al20_Cu0_Nb8_Ni0_Ta0_W4_Zr0         
   1.00000000000000     
     6.8731456023883348    0.0000000000000000   -0.0000000000000000
     0.0000000000000000    8.7829876616617906    0.0000000000000000
     0.0000000000000000    0.0000000000000000    8.7829876616617906
   Al   Nb   W 
    20     8     4
Direct
  0.4750866341165483 -0.0036741642340066  0.0222999422764345
  0.7749133658834518  0.2536741642340067  0.0222999422764345
  0.4750866341165483  0.2536741642340067  0.2277000577235654
  0.7749133658834518 -0.0036741642340066  0.2277000577235654
  0.0054838149238563 -0.0019748207811715 -0.0249526443152079
  0.2445161850761437  0.2519748207811716 -0.0249526443152079
  0.0054838149238563  0.2519748207811716  0.2749526443152078
  0.2445161850761437 -0.0019748207811715  0.2749526443152078
  0.5381721305906465 -0.0123430455624552  0.4876569544375448
  0.7118278694093535  0.2623430455624552  0.4876569544375448
  0.5381721305906465  0.2623430455624552  0.7623430455624554
  0.7118278694093535 -0.0123430455624552  0.7623430455624554
  0.4750866341165483  0.5222999422764348  0.4963258357659933
  0.7749133658834518  0.7277000577235653  0.4963258357659933
  0.4750866341165483  0.7277000577235653  0.7536741642340066
  0.7749133658834518  0.5222999422764348  0.7536741642340066
  0.0054838149238563  0.4750473556847922  0.4980251792188284
  0.2445161850761437  0.7749526443152081  0.4980251792188284
  0.0054838149238563  0.7749526443152081  0.7519748207811714
  0.2445161850761437  0.4750473556847922  0.7519748207811714
 -0.0346808686235384  0.0057960942300471  0.5057960942300476
  0.2846808686235384  0.2442039057699528  0.5057960942300476
 -0.0346808686235384  0.2442039057699528  0.7442039057699523
  0.2846808686235384  0.0057960942300471  0.7442039057699523
  0.5023119784039999  0.4967860470542489 -0.0032139529457510
  0.7476880215960002  0.7532139529457508 -0.0032139529457510
  0.5023119784039999  0.7532139529457508  0.2532139529457509
  0.7476880215960002  0.4967860470542489  0.2532139529457509
  0.0115164305527145  0.5015728842294481  0.0015728842294479
  0.2384835694472854  0.7484271157705519  0.0015728842294479
  0.0115164305527145  0.7484271157705519  0.2484271157705520
  0.2384835694472854  0.5015728842294481  0.2484271157705520
 
  0.00000000E+00  0.00000000E+00  0.00000000E+00
  0.00000000E+00  0.00000000E+00  0.00000000E+00
  0.00000000E+00  0.00000000E+00  0.00000000E+00
  0.00000000E+00  0.00000000E+00  0.00000000E+00
  0.00000000E+00  0.00000000E+00  0.00000000E+00
  0.00000000E+00  0.00000000E+00  0.00000000E+00
  0.00000000E+00  0.00000000E+00  0.00000000E+00
  0.00000000E+00  0.00000000E+00  0.00000000E+00
  0.00000000E+00  0.00000000E+00  0.00000000E+00
  0.00000000E+00  0.00000000E+00  0.00000000E+00
  0.00000000E+00  0.00000000E+00  0.00000000E+00
  0.00000000E+00  0.00000000E+00  0.00000000E+00
  0.00000000E+00  0.00000000E+00  0.00000000E+00
  0.00000000E+00  0.00000000E+00  0.00000000E+00
  0.00000000E+00  0.00000000E+00  0.00000000E+00
  0.00000000E+00  0.00000000E+00  0.00000000E+00
  0.00000000E+00  0.00000000E+00  0.00000000E+00
  0.00000000E+00  0.00000000E+00  0.00000000E+00
  0.00000000E+00  0.00000000E+00  0.00000000E+00
  0.00000000E+00  0.00000000E+00  0.00000000E+00
  0.00000000E+00  0.00000000E+00  0.00000000E+00
  0.00000000E+00  0.00000000E+00  0.00000000E+00
  0.00000000E+00  0.00000000E+00  0.00000000E+00
  0.00000000E+00  0.00000000E+00  0.00000000E+00
  0.00000000E+00  0.00000000E+00  0.00000000E+00
  0.00000000E+00  0.00000000E+00  0.00000000E+00
  0.00000000E+00  0.00000000E+00  0.00000000E+00
  0.00000000E+00  0.00000000E+00  0.00000000E+00
  0.00000000E+00  0.00000000E+00  0.00000000E+00
  0.00000000E+00  0.00000000E+00  0.00000000E+00
  0.00000000E+00  0.00000000E+00  0.00000000E+00
  0.00000000E+00  0.00000000E+00  0.00000000E+00
