Al12 Ni8 Zr4 Nb8 
1.0
8.7556636835210817e+00 0.0000000000000000e+00 0.0000000000000000e+00 
-5.1442567776939477e-09 7.4819953601588649e+00 0.0000000000000000e+00 
-7.0518519162804075e-09 -4.4841473603655745e-10 7.9185206355772140e+00 
Al Ni Zr Nb 
12 8 4 8 
Cartesian
   0.0776632591    2.0647015115    1.8682403291
   0.0677418634    3.8606273037    3.8545458009
   2.1112531773    7.2877926885    1.8682403291
   2.1211733438    5.4918668961    3.8545458009
   2.1112531825    2.0647015116    0.1113929972
   0.0776632571    7.2877926886    0.1113929972
   2.0769309775    1.9282149520    3.9493780040
   2.0769309720    7.4242792476    5.9487727904
   2.1211733429    3.8606273036    6.0436049936
   0.0677418603    5.4918668960    6.0436049936
   0.1119866810    7.4242792477    3.9493780040
   0.1119866830    1.9282149519    5.9487727904
   2.0726932368    3.7038046810    2.0723560355
   0.1162191717    5.6486895189    2.0723560355
   3.7113769857    0.0319429574    3.9090252229
   3.7113769826    1.8385582015    5.9891255716
   0.1162191680    3.7038046807    7.8257947589
   2.0726932303    5.6486895186    7.8257947589
   7.2332026105    1.8385582016    3.9090252229
   7.2332026099    0.0319429573    5.9891255716
   4.2657330765    1.9223191398    2.0742327249
   4.2657330675    7.4301750599    7.8239180695
   6.6788465178    7.4301750602    2.0742327249
   6.6788465165    1.9223191395    7.8239180695
   4.2885590891    5.5129436771    2.1398535054
   4.2885065546    3.6376862879    4.1877254752
   4.2885065518    5.7148079117    5.7104253193
   4.2885590853    3.8395505225    7.7582972890
   6.6560205050    3.8395505228    2.1398535054
   6.6560730360    3.6376862878    5.7104253193
   6.6560730359    5.7148079118    4.1877254752
   6.6560204989    5.5129436768    7.7582972890
