Al5 Cu5                                 
   1.00000000000000     
     3.8883178877172209    0.0005771618924099    1.3220111984036513
     1.2736454816328662    5.6862652694750748    2.6330380196807850
    -0.0095838477384512    0.0015335208923124    6.3999428543333243
   Al   Cu
     5     5
Direct
  0.5000000000000000  0.5000000000000000  0.5000000000000000
  0.8444683437089824  0.4611657564740362  0.8503624741817246
  0.1555316562910175  0.5388342435259638  0.1496375258182754
  0.6215275586117384  0.9953435814134516  0.7614678910189584
  0.3784724413882616  0.0046564185865484  0.2385321089810417
 -0.0000000000000000 -0.0000000000000000  0.0000000000000000
  0.7421724864151148  0.2407836807480755  0.2749717120385041
  0.2578275135848853  0.7592163192519245  0.7250282879614959
  0.8908216083900644  0.7722380894644512  0.4461321821775922
  0.1091783916099354  0.2277619105355488  0.5538678178224080
 
  0.00000000E+00  0.00000000E+00  0.00000000E+00
  0.00000000E+00  0.00000000E+00  0.00000000E+00
  0.00000000E+00  0.00000000E+00  0.00000000E+00
  0.00000000E+00  0.00000000E+00  0.00000000E+00
  0.00000000E+00  0.00000000E+00  0.00000000E+00
  0.00000000E+00  0.00000000E+00  0.00000000E+00
  0.00000000E+00  0.00000000E+00  0.00000000E+00
  0.00000000E+00  0.00000000E+00  0.00000000E+00
  0.00000000E+00  0.00000000E+00  0.00000000E+00
  0.00000000E+00  0.00000000E+00  0.00000000E+00
