Al5 Ni2 Zr1 
1.0
4.1062441370350129e+00 0.0000000000000000e+00 0.0000000000000000e+00 
3.1506064843305517e-08 4.1062441368789884e+00 0.0000000000000000e+00 
-2.0528880389664321e+00 -2.0528890168707554e+00 7.2754778162293778e+00 
Al Ni Zr 
5 2 1 
Cartesian
   0.0004722075    0.0004712137    7.2754778162
   2.0531504166    0.0001389132    2.2215016719
   0.0001392324    2.0531501131    2.2215016719
   0.0002632004    2.0532819067    5.0539761443
   2.0532825971    0.0002624944    5.0539761443
   0.0000292666    0.0000287937    3.4626909119
   2.0533843504    2.0533838137    3.8127869044
   4.1061209777    4.1061250523    0.0000000124
