Zr4 Cu2                                 
   1.00000000000000     
     1.6253960266631233    5.3167623571388134    0.0598464737495501
    -1.6253960266631233    5.3167623571388134    0.0598464737495501
     0.0000000000000000    4.4974730785485280    6.8652858063082576
   Zr   Cu
     4     2
Direct
  0.0746012080031207  0.0746012080031207  0.1620886269765878
  0.9253987919968794  0.9253987919968794  0.8379113730234125
  0.6584026976821322  0.6584026976821322  0.4423094439200592
  0.3415973023178676  0.3415973023178676  0.5576905560799409
  0.3649087849777287  0.3649087849777287  0.1499584928575509
  0.6350912150222715  0.6350912150222715  0.8500415071424491
 
  0.00000000E+00  0.00000000E+00  0.00000000E+00
  0.00000000E+00  0.00000000E+00  0.00000000E+00
  0.00000000E+00  0.00000000E+00  0.00000000E+00
  0.00000000E+00  0.00000000E+00  0.00000000E+00
  0.00000000E+00  0.00000000E+00  0.00000000E+00
  0.00000000E+00  0.00000000E+00  0.00000000E+00
