Al2 Cu1
1.0
   0.0000000000000000    4.0606749999999998    0.0000000000000000
   2.8510939999999998   -2.0303380000000000    2.0303380000000000
   0.0000000000000000    0.0000000000000000   -4.0606749999999998
Al Cu
2 1
direct
   0.0000000000000000    0.0000000000000000    0.0000000000000000 Al
   0.5000000000000000    0.0000000000000000    0.5000000000000000 Al
   0.2500000000000000    0.5000000000000000    0.7500000000000000 Cu
