Nb2 Ni6
1.0
   4.2190996099999998   -0.0000000000000000    0.0000000000000000
  -0.0000000000000000    4.5273332599999998    0.0000000000000000
   0.0000000000000000    0.0000000000000000    5.0826897899999999
Nb Ni
2 6
direct
   0.2500000000000000    0.3496952800000000    0.7500000000000000 Nb
   0.7500000000000000    0.6503047200000001    0.2500000000000000 Nb
   0.2500000000000000    0.3151192400000000    0.2500000000000000 Ni
   0.7500000000000000    0.6848807600000000    0.7500000000000000 Ni
   0.7500000000000000    0.1577526900000000    0.4989802600000000 Ni
   0.2500000000000000    0.8422473100000000    0.5010197400000000 Ni
   0.2500000000000000    0.8422473100000000    0.9989802600000001 Ni
   0.7500000000000000    0.1577526900000000    0.0010197400000000 Ni
