Cu6 Nb3 W15 
1.0
8.9438115790368578e+00 0.0000000000000000e+00 0.0000000000000000e+00 
-1.9662050020451593e-04 4.4879716303701072e+00 0.0000000000000000e+00 
-2.0169909561812948e-05 4.0552104892177152e-04 8.9746645265080289e+00 
Cu Nb W 
6 3 15 
Cartesian
   0.0581806110    2.6177913780    2.0397258549
   2.9228525142    2.6177913780    2.0397258549
   1.4905034221    2.6187722417    8.9481084942
   0.0642250637    0.3738887065    4.6942521286
   1.4906066934    0.3746265977    6.7418487643
   2.9169882817    0.3738887065    4.6942521286
   4.3397572307    0.3739751500    2.3364103148
   7.5852875765    0.3739751500    2.3364103148
   5.9625074758    0.3745389381    8.9734529468
   1.4906163145    0.3738161622    2.4729508610
   1.4905140970    2.6178132730    4.2127972754
   4.3689450839    2.6180497905    4.4810051248
   0.0951886506    0.3742599061    0.0170646964
   2.8860531798    0.3742599061    0.0170649656
   5.9624242372    2.6180307141    2.2709850104
   7.5558845201    2.6180497905    4.4810051248
   4.3927703363    2.6185693183    8.9267577673
   0.0884077201    2.6184891804    6.6565894513
   2.8926030898    2.6184891804    6.6565894513
   4.4011644608    0.3744455095    6.7468476524
   7.5320392567    2.6185693183    8.9267577673
   5.9625174419    0.3741305083    4.5430559553
   7.5238515546    0.3744455095    6.7468476524
   5.9624142535    2.6183928635    6.7101143505
