Al3 Cu3 Zr6 Nb3 Ta3 W6 
1.0
9.6253612634643844e+00 0.0000000000000000e+00 0.0000000000000000e+00 
-1.1842201060125758e-04 5.0029951552195264e+00 0.0000000000000000e+00 
2.6317819620498262e-06 1.4093290612714227e-01 8.8607469693341834e+00 
Al Cu Zr Nb Ta W 
3 3 6 3 3 6 
Cartesian
   0.2055936236    0.1756859061    4.3848558275
   3.0028612495    0.1756859061    4.3848558275
   1.6042274936    0.2990569999    6.6616690650
   5.1275564295    2.9133471124    4.3604621911
   7.7061233344    2.9133471124    4.3604621911
   6.4168465451    2.9001428463    6.6440007355
   3.1527348182    2.6847343661    2.4636775303
   0.0555940674    2.6847343661    2.4636775303
   4.9939895626    0.2356364850    2.3434460547
   7.8398238737    0.2356369853    2.3434460547
   1.6041687268    2.8288367260    8.3152971074
   6.4169076600    0.3633362007    8.2298972281
   4.0384120929    1.5923751236    6.4395567207
   6.4169063980    0.3253757492    5.0219258131
   8.7953426322    1.5923751236    6.4395567207
   1.6042278767    0.1547197021    2.1577779627
   3.3059412596    0.1943168517    0.0428113192
   9.5278614085    0.1943168362    0.0428103446
   6.4168473487    2.7355458924    2.0523173523
   4.8296147374    2.7163139704    0.0199919717
   8.0040781328    2.7163139732    0.0199921490
   1.6041672242    2.8029485210    5.1743572432
   4.0394893210    4.0697247668    6.5506882092
   8.7941482749    4.0697297698    6.5506882092
