hcp_Al12_Cu0_Nb0_Ni0_Ta3_W3_Zr6         
   1.00000000000000     
     9.2228474446601911    0.0000000000000000    0.0000000000000000
     0.0000000000000000    4.8174926314004738   -0.2242623767846476
     0.0000000000000000   -0.4219013706137789    9.7236124794438457
   Al   Ta   W    Zr
    12     3     3     6
Direct
  0.5040785966124750  0.6091029683620461  0.5325273920668659
  0.6666669999999968  0.6398902829113687  0.7697182201230814
  0.8292544033875285  0.6091029683620460  0.5325273920668659
  0.4922095366722343  0.0480570808339776  0.2179567924640343
  0.6666669999999968  0.0482058568080253 -0.0045513682276028
  0.8411234633277695  0.0480570808339776  0.2179567924640343
 -0.0008295866149164  0.5400233403024977  0.2744442317135619
  0.1666669999999968  0.5518451972343841 -0.0021092425006217
  0.3341625866149198  0.5400233403024977  0.2744442317135619
  0.0108467496278877  0.0402966641300005 -0.0176691659730133
  0.1666669999999968  0.0131995231849593  0.2336120453764815
  0.3224862503721156  0.0402966641300005 -0.0176691659730133
  0.5075372195105832  0.1296017808775667  0.7441560847607458
  0.6666669999999968  0.1019385859317214  0.4820655875483493
  0.8257957804894200  0.1296017808775667  0.7441560847607458
 -0.0019005374537187  0.6469991554457233  0.7502592744134772
  0.1666669999999968  0.6077753583874177  0.5117088520766557
  0.3352335374537220  0.6469991554457233  0.7502592744134772
 -0.0127558659299542  0.0977455272274803  0.4809810329337122
  0.1666669999999968  0.1563702849152058  0.7464647530622605
  0.3460888659299575  0.0977455272274803  0.4809810329337122
  0.4848921055615424  0.5479466986093056  0.0060313093246071
  0.6666669999999968  0.5612324790496831  0.2857172491334162
  0.8484408944384605  0.5479466986093056  0.0060313093246071
 
  0.00000000E+00  0.00000000E+00  0.00000000E+00
  0.00000000E+00  0.00000000E+00  0.00000000E+00
  0.00000000E+00  0.00000000E+00  0.00000000E+00
  0.00000000E+00  0.00000000E+00  0.00000000E+00
  0.00000000E+00  0.00000000E+00  0.00000000E+00
  0.00000000E+00  0.00000000E+00  0.00000000E+00
  0.00000000E+00  0.00000000E+00  0.00000000E+00
  0.00000000E+00  0.00000000E+00  0.00000000E+00
  0.00000000E+00  0.00000000E+00  0.00000000E+00
  0.00000000E+00  0.00000000E+00  0.00000000E+00
  0.00000000E+00  0.00000000E+00  0.00000000E+00
  0.00000000E+00  0.00000000E+00  0.00000000E+00
  0.00000000E+00  0.00000000E+00  0.00000000E+00
  0.00000000E+00  0.00000000E+00  0.00000000E+00
  0.00000000E+00  0.00000000E+00  0.00000000E+00
  0.00000000E+00  0.00000000E+00  0.00000000E+00
  0.00000000E+00  0.00000000E+00  0.00000000E+00
  0.00000000E+00  0.00000000E+00  0.00000000E+00
  0.00000000E+00  0.00000000E+00  0.00000000E+00
  0.00000000E+00  0.00000000E+00  0.00000000E+00
  0.00000000E+00  0.00000000E+00  0.00000000E+00
  0.00000000E+00  0.00000000E+00  0.00000000E+00
  0.00000000E+00  0.00000000E+00  0.00000000E+00
  0.00000000E+00  0.00000000E+00  0.00000000E+00
