fcc_Al4_Cu0_Nb4_Ni0_Ta12_W12_Zr0        
   1.00000000000000     
     9.1397779999266380    0.0000000000000000    0.0000000000000000
     0.0000000000000000    9.1510645737381235    0.0000000000000000
     0.0000000000000000    0.0000000000000000    6.5333099373132200
   Al   Nb   Ta   W 
     4     4    12    12
Direct
  0.4935095123755659 -0.0071028169160341  0.0110834205689958
  0.7564904876244345  0.2571028169160339  0.0110834205689958
  0.4935095123755659  0.2571028169160339  0.2389165794310041
  0.7564904876244345 -0.0071028169160341  0.2389165794310041
  0.5005374324512265  0.4993289404712364  0.4983194892042635
  0.7494625675487735  0.7506710595287639  0.4983194892042635
  0.5005374324512265  0.7506710595287639  0.7516805107957364
  0.7494625675487735  0.4993289404712364  0.7516805107957364
  0.0007723818505982  0.0011591311094913  0.4959217633826493
  0.2492276181494019  0.2488408688905087  0.4959217633826493
  0.0007723818505982  0.2488408688905087  0.7540782366173510
  0.2492276181494019  0.0011591311094913  0.7540782366173510
 -0.0004950634156180  0.4990782978422652  0.4941394782978530
  0.2504950634156181  0.7509217021577350  0.4941394782978530
 -0.0004950634156180  0.7509217021577350  0.7558605217021470
  0.2504950634156181  0.4990782978422652  0.7558605217021470
  0.4998462080141559  0.0009406191482676  0.4874388305465935
  0.7501537919858442  0.2490593808517325  0.4874388305465935
  0.4998462080141559  0.2490593808517325  0.7625611694534065
  0.7501537919858442  0.0009406191482676  0.7625611694534065
  0.0004507555908108  0.0013719777533711  0.0035146160086221
  0.2495492444091890  0.2486280222466290  0.0035146160086221
  0.0004507555908109  0.2486280222466290  0.2464853839913779
  0.2495492444091890  0.0013719777533711  0.2464853839913779
 -0.0022498662632708  0.4985839392844864  0.0048659877789635
  0.2522498662632708  0.7514160607155136  0.0048659877789635
 -0.0022498662632708  0.7514160607155136  0.2451340122210365
  0.2522498662632708  0.4985839392844864  0.2451340122210366
  0.5024412141392597  0.5009906634511213  0.0030971957005680
  0.7475587858607403  0.7490093365488788  0.0030971957005680
  0.5024412141392597  0.7490093365488788  0.2469028042994320
  0.7475587858607403  0.5009906634511213  0.2469028042994320
 
  0.00000000E+00  0.00000000E+00  0.00000000E+00
  0.00000000E+00  0.00000000E+00  0.00000000E+00
  0.00000000E+00  0.00000000E+00  0.00000000E+00
  0.00000000E+00  0.00000000E+00  0.00000000E+00
  0.00000000E+00  0.00000000E+00  0.00000000E+00
  0.00000000E+00  0.00000000E+00  0.00000000E+00
  0.00000000E+00  0.00000000E+00  0.00000000E+00
  0.00000000E+00  0.00000000E+00  0.00000000E+00
  0.00000000E+00  0.00000000E+00  0.00000000E+00
  0.00000000E+00  0.00000000E+00  0.00000000E+00
  0.00000000E+00  0.00000000E+00  0.00000000E+00
  0.00000000E+00  0.00000000E+00  0.00000000E+00
  0.00000000E+00  0.00000000E+00  0.00000000E+00
  0.00000000E+00  0.00000000E+00  0.00000000E+00
  0.00000000E+00  0.00000000E+00  0.00000000E+00
  0.00000000E+00  0.00000000E+00  0.00000000E+00
  0.00000000E+00  0.00000000E+00  0.00000000E+00
  0.00000000E+00  0.00000000E+00  0.00000000E+00
  0.00000000E+00  0.00000000E+00  0.00000000E+00
  0.00000000E+00  0.00000000E+00  0.00000000E+00
  0.00000000E+00  0.00000000E+00  0.00000000E+00
  0.00000000E+00  0.00000000E+00  0.00000000E+00
  0.00000000E+00  0.00000000E+00  0.00000000E+00
  0.00000000E+00  0.00000000E+00  0.00000000E+00
  0.00000000E+00  0.00000000E+00  0.00000000E+00
  0.00000000E+00  0.00000000E+00  0.00000000E+00
  0.00000000E+00  0.00000000E+00  0.00000000E+00
  0.00000000E+00  0.00000000E+00  0.00000000E+00
  0.00000000E+00  0.00000000E+00  0.00000000E+00
  0.00000000E+00  0.00000000E+00  0.00000000E+00
  0.00000000E+00  0.00000000E+00  0.00000000E+00
  0.00000000E+00  0.00000000E+00  0.00000000E+00
