Ta4 Al4 Ni4                             
   1.00000000000000     
    -2.4126896847122694   -4.2949301720565236    0.0000000000000000
    -2.5131858849206981    4.3529478835280679    0.0000000000000000
     0.0000000000000000    0.0000000000000000   -7.9918085074610525
   Ta   Al   Ni
     4     4     4
Direct
  0.6667558509665197  0.3333752148721614  0.5494998377978438
  0.3260557978091828  0.6630254569360901  0.4297044212048373
  0.3260557978091828  0.6630254569360901  0.0702955787951556
  0.6667558509665197  0.3333752148721614  0.9505001622021562
  0.9849035117037516  0.9924506741361950  0.4883569420725837
  0.9849035117037516  0.9924506741361950  0.0116430579274163
  0.1881551959632075  0.3517882883840744  0.7500000000000000
  0.1881587613302249  0.8363693925837155  0.7500000000000000
  0.6788458458444534  0.8394280272212976  0.7500000000000000
  0.8252759241810821  0.6530662823210959  0.2500000000000000
  0.8252834846704723  0.1722163587311043  0.2500000000000000
  0.3388514670516494  0.1694289588698046  0.2500000000000000
 
  0.00000000E+00  0.00000000E+00  0.00000000E+00
  0.00000000E+00  0.00000000E+00  0.00000000E+00
  0.00000000E+00  0.00000000E+00  0.00000000E+00
  0.00000000E+00  0.00000000E+00  0.00000000E+00
  0.00000000E+00  0.00000000E+00  0.00000000E+00
  0.00000000E+00  0.00000000E+00  0.00000000E+00
  0.00000000E+00  0.00000000E+00  0.00000000E+00
  0.00000000E+00  0.00000000E+00  0.00000000E+00
  0.00000000E+00  0.00000000E+00  0.00000000E+00
  0.00000000E+00  0.00000000E+00  0.00000000E+00
  0.00000000E+00  0.00000000E+00  0.00000000E+00
  0.00000000E+00  0.00000000E+00  0.00000000E+00
