Zr10 Al6                                
   1.00000000000000     
     4.1692983064708748   -7.2214363046813581   -0.0000000000000000
     4.1692983064708748    7.2214363046813581    0.0000000000000000
     0.0000000000000000   -0.0000000000000000    5.5290957626886170
   Zr   Al
    10     6
Direct
  0.3333330000000032  0.6666669999999968  0.0000000000000000
  0.6666669999999968  0.3333330000000032  0.5000000000000000
  0.6666669999999968  0.3333330000000032  0.0000000000000000
  0.3333330000000032  0.6666669999999968  0.5000000000000000
  0.2388424282348951 -0.0000000000000001  0.2500000000000000
  0.2388424282348950  0.2388424282348950  0.7500000000000000
  0.0000000000000001  0.7611575717651049  0.7500000000000000
 -0.0000000000000001  0.2388424282348951  0.2500000000000000
  0.7611575717651050  0.7611575717651050  0.2500000000000000
  0.7611575717651049  0.0000000000000001  0.7500000000000000
  0.6068907506980198  0.0000000000000006  0.2500000000000000
  0.6068907506980203  0.6068907506980203  0.7500000000000000
 -0.0000000000000006  0.3931092493019732  0.7500000000000000
  0.0000000000000006  0.6068907506980198  0.2500000000000000
  0.3931092493019726  0.3931092493019726  0.2500000000000000
  0.3931092493019732 -0.0000000000000006  0.7500000000000000
 
  0.00000000E+00  0.00000000E+00  0.00000000E+00
  0.00000000E+00  0.00000000E+00  0.00000000E+00
  0.00000000E+00  0.00000000E+00  0.00000000E+00
  0.00000000E+00  0.00000000E+00  0.00000000E+00
  0.00000000E+00  0.00000000E+00  0.00000000E+00
  0.00000000E+00  0.00000000E+00  0.00000000E+00
  0.00000000E+00  0.00000000E+00  0.00000000E+00
  0.00000000E+00  0.00000000E+00  0.00000000E+00
  0.00000000E+00  0.00000000E+00  0.00000000E+00
  0.00000000E+00  0.00000000E+00  0.00000000E+00
  0.00000000E+00  0.00000000E+00  0.00000000E+00
  0.00000000E+00  0.00000000E+00  0.00000000E+00
  0.00000000E+00  0.00000000E+00  0.00000000E+00
  0.00000000E+00  0.00000000E+00  0.00000000E+00
  0.00000000E+00  0.00000000E+00  0.00000000E+00
  0.00000000E+00  0.00000000E+00  0.00000000E+00
