Nb1 Al2 Ni9
1.0
   3.5837517600000002    0.0000000000000000    0.0000000000000000
   0.0000000000000000    3.5837527599999999    0.0000000000000000
   0.0000000000000000    0.0000000000000000   10.5736694399999998
Nb Al Ni
1 2 9
direct
   0.0000000000000000   -0.0000000000000000   -0.0000000000000000 Nb
   0.0000000000000000   -0.0000000000000000    0.3396666400000000 Al
   0.0000000000000000    0.0000000000000000    0.6603333600000000 Al
   0.5000000000000000    0.5000000000000000   -0.0000000000000000 Ni
   0.5000000000000000    0.5000000000000000    0.3372241300000000 Ni
   0.5000000000000000    0.5000000000000000    0.6627758700000000 Ni
   0.5000000000000000    0.0000000000000000    0.1728761900000000 Ni
   0.5000000000000000   -0.0000000000000000    0.5000000000000000 Ni
   0.5000000000000000   -0.0000000000000000    0.8271238100000000 Ni
   0.0000000000000000    0.5000000000000000    0.1728761900000000 Ni
   0.0000000000000000    0.5000000000000000    0.5000000000000000 Ni
   0.0000000000000000    0.5000000000000000    0.8271238100000000 Ni
