Cu-Zr from LAMMPS dump
1.0
15.6784554411851751 0.0000000000000000 0.0000000000000000
-2.3048559351760227 22.8131874002935611 0.0000000000000000
5.1960292333861124 6.0558924876349076 10.8751423016904702
Cu Zr
205 51
Direct
0.2092340000000000 0.1346350000000000 0.0681487000000000
0.0469818000000000 0.0558190000000000 0.1453340000000000
0.0520360000000000 0.1657080000000000 0.3580430000000000
0.1905620000000000 0.2547220000000000 0.1101150000000000
0.1235800000000000 0.0204380000000000 0.2814510000000000
0.0704291000000000 0.1600000000000000 0.1766340000000000
0.0137000000000000 0.1412290000000000 0.0148718000000000
0.3388410000000000 0.0727165000000000 0.4391470000000000
0.2943800000000000 0.1841180000000000 0.3966470000000000
0.2712510000000000 0.0287734000000000 0.1428780000000000
0.4251530000000000 0.2107570000000000 0.0180176000000000
0.0122513000000000 0.2319050000000000 0.4422350000000000
0.1390940000000000 0.4566350000000000 0.0938202000000000
0.1798860000000000 0.2786150000000000 0.2740260000000000
0.0283558000000000 0.3497240000000000 0.3343350000000000
0.1456490000000000 0.4542420000000000 0.3709820000000000
0.2757480000000000 0.3783160000000000 0.0399530000000000
0.0022873100000000 0.4537280000000000 0.3037690000000000
0.4609570000000000 0.4550970000000000 0.1281510000000000
0.3453880000000000 0.2822620000000000 0.1452950000000000
0.3026660000000000 0.3926670000000000 0.4186190000000000
0.4785970000000000 0.4849750000000000 0.2854350000000000
0.4477380000000000 0.4059960000000000 0.0224989000000000
0.0930203000000000 0.1141850000000000 0.7565680000000000
0.2251790000000000 0.0870445000000000 0.5947010000000000
0.2556090000000000 0.2097670000000000 0.5650140000000000
0.1640320000000000 0.1495000000000000 0.8415280000000001
0.1297150000000000 0.1534070000000000 0.5087260000000000
0.0489899000000000 0.0307287000000000 0.9837089999999999
0.2637690000000000 0.0776357000000000 0.7623230000000000
0.2163670000000000 0.0623598000000000 0.9761370000000000
0.3560230000000000 0.1315440000000000 0.9393430000000000
0.3185820000000000 0.0030045000000000 0.6782760000000000
0.4821650000000000 0.0740540000000000 0.9574490000000000
0.2062690000000000 0.3421510000000000 0.9169990000000000
0.3077070000000000 0.4159030000000000 0.5745400000000001
0.2065530000000000 0.2896190000000000 0.6575930000000000
0.0785121000000000 0.4090560000000000 0.9617250000000001
0.1404700000000000 0.3256630000000000 0.7889990000000000
0.1845510000000000 0.2398300000000000 0.8959610000000000
0.4499060000000000 0.4983290000000000 0.8128180000000000
0.3988120000000000 0.4523510000000000 0.6874780000000000
0.3123830000000000 0.3275030000000000 0.7413340000000000
0.4864490000000000 0.3318140000000000 0.6615750000000000
0.2588020000000000 0.4574060000000000 0.8810980000000000
0.3268310000000000 0.2380510000000000 0.9390340000000000
0.3930410000000000 0.3350090000000000 0.5045470000000000
0.3414340000000000 0.4940660000000000 0.9988540000000000
0.0781903000000000 0.6405080000000000 0.3604180000000000
0.1892360000000000 0.5311460000000000 0.1604630000000000
0.2136920000000000 0.6002640000000000 0.2611220000000000
0.0515421000000000 0.7166410000000000 0.2100870000000000
0.0715329000000000 0.5449100000000000 0.0381766000000000
0.2229820000000000 0.6527120000000000 0.0440898000000000
0.0145928000000000 0.5205830000000000 0.4300540000000000
0.4610920000000000 0.5907860000000000 0.2344430000000000
0.4045880000000000 0.5495060000000000 0.1318840000000000
0.4552860000000000 0.6725120000000000 0.3176600000000000
0.4178220000000000 0.5518500000000000 0.4859920000000000
0.3161040000000000 0.9719430000000000 0.0221579000000000
0.0685808000000000 0.8538900000000000 0.0796990000000000
0.0291983000000000 0.8104170000000001 0.4678140000000000
0.1866540000000000 0.9064950000000001 0.3367300000000000
0.1184760000000000 0.8083610000000000 0.2551080000000000
0.1806800000000000 0.7529280000000000 0.4046890000000000
0.2798620000000000 0.8654180000000000 0.1787530000000000
0.2553970000000000 0.8731570000000000 0.0100432000000000
0.2405550000000000 0.9894070000000000 0.3683690000000000
0.0348997000000000 0.9179730000000000 0.4992470000000000
0.3181100000000000 0.8509040000000000 0.3684580000000000
0.3691130000000000 0.9347550000000000 0.4279620000000000
0.3762320000000000 0.9499030000000001 0.1925580000000000
0.0293167000000000 0.7093720000000000 0.6320940000000000
0.0521692000000000 0.6002830000000000 0.5730880000000000
0.1409780000000000 0.6588720000000000 0.9275900000000000
0.1880390000000000 0.6276580000000000 0.6284310000000000
0.1364630000000000 0.5299210000000000 0.8426150000000000
0.1845560000000000 0.7571660000000000 0.5943180000000000
0.0807855000000000 0.5087990000000000 0.5467190000000000
0.4891230000000000 0.6716860000000000 0.8007980000000000
0.2665230000000000 0.6920410000000000 0.6901270000000000
0.3535250000000000 0.6009930000000000 0.6282070000000000
0.4637130000000000 0.7413590000000000 0.5899450000000001
0.4418850000000000 0.6017400000000001 0.7362700000000000
0.3475830000000000 0.6085120000000001 0.9942879999999999
0.3427640000000000 0.7262530000000000 0.8000330000000000
0.2231960000000000 0.7784960000000000 0.7695570000000000
0.0569778000000000 0.7506170000000000 0.8062859999999999
0.1129180000000000 0.8599040000000000 0.8057700000000000
0.1140920000000000 0.7498540000000000 0.9885780000000000
0.2253590000000000 0.9063050000000000 0.8373800000000000
0.1993010000000000 0.9760060000000000 0.6227050000000000
0.0097615100000000 0.9073690000000000 0.7004400000000000
0.3027470000000000 0.8917200000000000 0.6470800000000000
0.2093470000000000 0.9696690000000000 0.9470170000000000
0.4466580000000000 0.9677120000000000 0.6036560000000000
0.3096790000000000 0.8223340000000000 0.8741310000000000
0.4841570000000000 0.9090009999999999 0.7716890000000000
0.3551720000000000 0.8223830000000000 0.5422780000000000
0.4230680000000000 0.8376169999999999 0.9837320000000001
0.4289470000000000 0.7760620000000000 0.8603170000000000
0.6345960000000000 0.1863220000000000 0.3209280000000000
0.6558160000000000 0.0463994000000000 0.1876750000000000
0.6496490000000000 0.1606490000000000 0.1272200000000000
0.5155640000000000 0.0941903000000000 0.3479830000000000
0.5750370000000000 0.0210411000000000 0.0749461000000000
0.8234140000000000 0.2463980000000000 0.0190302000000000
0.7699310000000000 0.0474173000000000 0.0025971700000000
0.9027770000000001 0.0971918000000000 0.2426270000000000
0.8988910000000000 0.1727690000000000 0.3391980000000000
0.8083990000000000 0.2096960000000000 0.2188630000000000
0.9821210000000000 0.0394033000000000 0.3884020000000000
0.8218630000000000 0.1207410000000000 0.1060860000000000
0.7011410000000000 0.1588450000000000 0.4656920000000000
0.7769120000000000 0.0539216000000000 0.4967650000000000
0.9988510000000000 0.2638720000000000 0.0321669000000000
0.6930060000000000 0.4508930000000000 0.4392770000000000
0.5230480000000000 0.2905450000000000 0.4961500000000000
0.6327230000000000 0.3702240000000000 0.1018340000000000
0.5681770000000000 0.2870920000000000 0.2912510000000000
0.7749030000000000 0.3981860000000000 0.1080830000000000
0.7555930000000000 0.4105020000000000 0.2807430000000000
0.7233690000000000 0.2881230000000000 0.1252880000000000
0.5400420000000000 0.3855340000000000 0.3114670000000000
0.6538500000000000 0.4809040000000000 0.0968507000000000
0.9334650000000000 0.3834900000000000 0.2157320000000000
0.8284030000000000 0.3460490000000000 0.4672460000000000
0.8766720000000000 0.2617190000000000 0.3773070000000000
0.9018050000000000 0.3371590000000000 0.1082400000000000
0.9566850000000000 0.4728790000000000 0.0126959000000000
0.8542310000000000 0.4957430000000000 0.4194090000000000
0.5120770000000000 0.0754279000000000 0.5335900000000000
0.5789029999999999 0.1781240000000000 0.9451830000000000
0.7293200000000000 0.2295270000000000 0.5505210000000000
0.5475160000000000 0.1807410000000000 0.5507260000000000
0.5804810000000000 0.0478722000000000 0.6821650000000000
0.8351430000000000 0.1580400000000000 0.5573570000000000
0.8331660000000000 0.0459670000000000 0.8059110000000000
0.9242920000000000 0.0758428000000000 0.5531950000000000
0.9507750000000000 0.1492890000000000 0.6889350000000000
0.9297930000000000 0.0882530000000000 0.9350120000000000
0.7427560000000000 0.0350996000000000 0.7107740000000000
0.9841470000000000 0.0215302000000000 0.7190640000000000
0.5704490000000000 0.3365080000000000 0.9427590000000000
0.7123310000000000 0.2594820000000000 0.7335440000000000
0.5776970000000000 0.4254880000000000 0.6380570000000000
0.6482270000000000 0.3139030000000000 0.5665730000000000
0.6174260000000000 0.4640600000000000 0.9312470000000000
0.7652580000000000 0.4812540000000000 0.7432200000000000
0.6743230000000000 0.2788770000000000 0.8984520000000000
0.5710320000000000 0.3034460000000000 0.7823280000000000
0.6044470000000000 0.4593440000000000 0.7645570000000000
0.9203990000000000 0.4473360000000000 0.6905630000000000
0.7981250000000000 0.3730510000000000 0.8822690000000000
0.8576910000000000 0.3157170000000000 0.7640490000000000
0.9733970000000000 0.4960720000000000 0.8185850000000000
0.9448320000000000 0.3931630000000000 0.5116020000000000
0.7783670000000000 0.4721780000000000 0.9312380000000000
0.7472610000000000 0.6363250000000000 0.0982501000000000
0.7183000000000000 0.6965930000000000 0.2300490000000000
0.5984060000000000 0.5798370000000000 0.0744342000000000
0.5977810000000000 0.5883840000000000 0.2878360000000000
0.6677040000000000 0.5088590000000000 0.2430400000000000
0.6785679999999999 0.5597820000000000 0.3889490000000000
0.8964020000000000 0.5016380000000000 0.1813050000000000
0.7290580000000000 0.6616620000000000 0.4207380000000000
0.8497140000000000 0.5825630000000001 0.2263110000000000
0.9112130000000001 0.6414900000000000 0.3439430000000000
0.9737190000000000 0.6285040000000000 0.0190301000000000
0.8238140000000000 0.5444800000000000 0.0303002000000000
0.7655880000000000 0.8192890000000000 0.0526043000000000
0.5868010000000000 0.8021180000000000 0.2251820000000000
0.5865460000000000 0.8241710000000000 0.4252120000000000
0.6595050000000000 0.9517870000000000 0.3604280000000000
0.7355170000000000 0.9229250000000000 0.1857940000000000
0.5099520000000000 0.9697200000000000 0.4032740000000000
0.9463600000000000 0.8582260000000000 0.0068908100000000
0.9160740000000001 0.7594370000000000 0.2719520000000000
0.9385760000000000 0.9111910000000000 0.1390390000000000
0.8060950000000000 0.9741400000000000 0.4315600000000000
0.9429100000000000 0.9428350000000000 0.3664500000000000
0.9469570000000000 0.8358030000000000 0.3426040000000000
0.7846410000000000 0.8753820000000000 0.3846820000000000
0.7871650000000000 0.7363220000000000 0.4949750000000000
0.6811810000000000 0.6910040000000000 0.7353280000000000
0.6111740000000000 0.6232780000000000 0.6517130000000000
0.6358080000000000 0.7723500000000000 0.5983400000000000
0.5524380000000000 0.5355250000000000 0.5948369999999999
0.7262300000000000 0.5339460000000000 0.5409820000000000
0.5472740000000000 0.6603700000000000 0.9631550000000000
0.8977410000000000 0.5667200000000000 0.5462880000000000
0.7489920000000000 0.7115480000000000 0.8903740000000000
0.7736610000000000 0.6175920000000000 0.6590160000000000
0.8678990000000000 0.6987870000000000 0.7000880000000000
0.8808470000000000 0.5857860000000000 0.7695470000000000
0.7392190000000000 0.6073880000000000 0.8843150000000000
0.8970910000000000 0.6824230000000000 0.8750790000000001
0.6193050000000000 0.9749910000000001 0.5681380000000000
0.6694940000000000 0.8844740000000000 0.5656720000000000
0.6528370000000000 0.9246310000000000 0.7402320000000000
0.5793060000000000 0.8294330000000000 0.9763620000000000
0.8755280000000000 0.9147060000000000 0.8567200000000000
0.9633880000000000 0.7902120000000000 0.6844220000000000
0.7367080000000000 0.8425660000000000 0.8586580000000000
0.8826260000000000 0.9734969999999999 0.9747030000000000
0.0953412000000000 0.0337040000000000 0.4996360000000000
0.4315790000000000 0.1761220000000000 0.4695090000000000
0.2620240000000000 0.1442840000000000 0.2279860000000000
0.4820940000000000 0.2170820000000000 0.1768700000000000
0.4607070000000000 0.0767447000000000 0.1782720000000000
0.0578894000000000 0.2986770000000000 0.1798450000000000
0.2526930000000000 0.4040080000000000 0.2351750000000000
0.1556140000000000 0.2834110000000000 0.4778090000000000
0.4046820000000000 0.3131390000000000 0.2888450000000000
0.4096840000000000 0.0619038000000000 0.7777160000000000
0.3604090000000000 0.2158360000000000 0.7113040000000000
0.1916470000000000 0.4924150000000000 0.6839000000000000
0.0841827000000000 0.3686650000000000 0.6024620000000001
0.4020520000000000 0.3569660000000000 0.8600350000000000
0.0379790000000000 0.5873410000000000 0.2194710000000000
0.2473400000000000 0.7351970000000000 0.1547660000000000
0.2525800000000000 0.6363510000000000 0.3972970000000000
0.4207760000000000 0.7062640000000000 0.0967264000000000
0.2796580000000000 0.5033200000000000 0.4140050000000000
0.0969862000000000 0.9450740000000000 0.1987400000000000
0.3754440000000000 0.7420050000000000 0.4515670000000000
0.4079080000000000 0.8029430000000000 0.1940020000000000
0.0347931000000000 0.6125760000000000 0.8227790000000000
0.2674160000000000 0.5852619999999999 0.8761010000000000
0.1652780000000000 0.8734210000000000 0.5769950000000000
0.0920810000000000 0.9888190000000000 0.8183780000000000
0.4854160000000000 0.8561330000000000 0.6090960000000000
0.6775670000000000 0.0728434000000000 0.3603570000000000
0.8677460000000000 0.0022663100000000 0.1971670000000000
0.5015110000000000 0.4475710000000000 0.4798090000000000
0.7273770000000001 0.2951340000000000 0.3270470000000000
0.6901540000000000 0.1200570000000000 0.7930600000000000
0.5167000000000000 0.2007700000000000 0.7543400000000000
0.7676460000000001 0.1756500000000000 0.9223900000000000
0.8842190000000000 0.2406220000000000 0.6421750000000001
0.9720080000000000 0.2293370000000000 0.8209640000000000
0.7316310000000000 0.3960020000000000 0.6588280000000000
0.9771750000000000 0.3662770000000000 0.8780110000000000
0.6214170000000000 0.7153980000000000 0.0950851000000000
0.5339699999999999 0.6684270000000000 0.4511160000000000
0.9255370000000001 0.7280010000000000 0.1124490000000000
0.5290540000000000 0.9042660000000000 0.2556320000000000
0.7559150000000000 0.7954700000000000 0.2721160000000000
0.9447070000000000 0.6931000000000000 0.4717190000000000
0.5538200000000000 0.5670290000000000 0.8877170000000000
0.6871950000000000 0.9240010000000000 0.9901860000000000
0.6052999999999999 0.7941170000000000 0.7923770000000000
0.5101130000000000 0.9448290000000000 0.9882680000000000
0.8410440000000000 0.8115289999999999 0.5887120000000000
0.8691449999999999 0.9383700000000000 0.6391540000000000
0.8690530000000000 0.7891049999999999 0.9074700000000000
