Al1
1.0
   2.4733290000000001    0.0000000000000000    1.4279770000000001
   0.8244429999999990    2.3318770000000000    1.4279770000000001
   0.0000000000000000    0.0000000000000000    2.8559549999999998
Al
1
direct
   0.0000000000000000    0.0000000000000000    0.0000000000000000 Al
