bcc_Al6_Cu6_Nb0_Ni0_Ta0_W9_Zr3          
   1.00000000000000     
    12.0941159058177163    0.0000000000000000    0.0000000000000000
     0.0000000000000000    5.5455015433579158   -0.4118788000413169
     0.0000000000000000   -0.4146172379759131    5.6189070620167563
   Al   Cu   W    Zr
     6     6     9     3
Direct
  0.1666666666666643  0.2674807120365029  0.2675788023413841
  0.5000000000000000  0.2674807120365029  0.2675788023413841
  0.8333333333333357  0.2674807120365029  0.2675788023413841
 -0.0000000000000000 -0.0135994984093006 -0.0096155491579459
  0.3333333333333357 -0.0135994984093006 -0.0096155491579459
  0.6666666666666643 -0.0135994984093006 -0.0096155491579459
 -0.0000000000000000  0.5008425500440578  0.5052715994169403
  0.3333333333333357  0.5008425500440578  0.5052715994169403
  0.6666666666666643  0.5008425500440578  0.5052715994169403
  0.1666666666666643  0.7471429464329221  0.7398209077353111
  0.5000000000000000  0.7471429464329221  0.7398209077353111
  0.8333333333333357  0.7471429464329221  0.7398209077353111
  0.1666666666666643  0.2610789820993976  0.7673786044453207
  0.5000000000000000  0.2610789820993976  0.7673786044453207
  0.8333333333333357  0.2610789820993976  0.7673786044453207
  0.1666666666666643  0.7470650778265953  0.2277337808190892
  0.5000000000000000  0.7470650778265953  0.2277337808190892
  0.8333333333333357  0.7470650778265953  0.2277337808190892
 -0.0000000000000000  0.4920402519065012  0.0048153553571914
  0.3333333333333357  0.4920402519065012  0.0048153553571914
  0.6666666666666643  0.4920402519065012  0.0048153553571914
 -0.0000000000000000 -0.0020510219366767  0.4970164990427088
  0.3333333333333357 -0.0020510219366767  0.4970164990427088
  0.6666666666666643 -0.0020510219366767  0.4970164990427088
 
  0.00000000E+00  0.00000000E+00  0.00000000E+00
  0.00000000E+00  0.00000000E+00  0.00000000E+00
  0.00000000E+00  0.00000000E+00  0.00000000E+00
  0.00000000E+00  0.00000000E+00  0.00000000E+00
  0.00000000E+00  0.00000000E+00  0.00000000E+00
  0.00000000E+00  0.00000000E+00  0.00000000E+00
  0.00000000E+00  0.00000000E+00  0.00000000E+00
  0.00000000E+00  0.00000000E+00  0.00000000E+00
  0.00000000E+00  0.00000000E+00  0.00000000E+00
  0.00000000E+00  0.00000000E+00  0.00000000E+00
  0.00000000E+00  0.00000000E+00  0.00000000E+00
  0.00000000E+00  0.00000000E+00  0.00000000E+00
  0.00000000E+00  0.00000000E+00  0.00000000E+00
  0.00000000E+00  0.00000000E+00  0.00000000E+00
  0.00000000E+00  0.00000000E+00  0.00000000E+00
  0.00000000E+00  0.00000000E+00  0.00000000E+00
  0.00000000E+00  0.00000000E+00  0.00000000E+00
  0.00000000E+00  0.00000000E+00  0.00000000E+00
  0.00000000E+00  0.00000000E+00  0.00000000E+00
  0.00000000E+00  0.00000000E+00  0.00000000E+00
  0.00000000E+00  0.00000000E+00  0.00000000E+00
  0.00000000E+00  0.00000000E+00  0.00000000E+00
  0.00000000E+00  0.00000000E+00  0.00000000E+00
  0.00000000E+00  0.00000000E+00  0.00000000E+00
