Al9 Ni9 Nb3 Ta3 
1.0
7.8321651230497196e+00 0.0000000000000000e+00 0.0000000000000000e+00 
-1.1692940397252238e-04 5.0903084359698534e+00 0.0000000000000000e+00 
3.9948693463576700e-04 1.1435872532106571e-01 8.7218760408809359e+00 
Al Ni Nb Ta 
9 9 3 3 
Cartesian
   3.8782766201    1.2129009209    2.4712563574
   2.5769205646    4.7090455057    3.9856182506
   0.0339565104    4.7090405298    3.9856269725
   6.5647797464    1.2129008066    2.4712476355
   5.2215626006    4.7719207223    4.9060814386
   1.3056970693    1.1444497546    7.8061226660
   3.4183771732    1.3373274141    6.0455770996
   5.2216858898    4.9453950835    7.8365445696
   7.0250108907    1.3373274141    6.0455770996
   0.0756681475    3.1774092772    2.1529514913
   1.3052833522    3.2983097271    0.0755945057
   2.5351101499    3.1774092772    2.1529514913
   1.3054337092    0.7560269560    1.9002961862
   3.1946554490    4.9028385304    0.4356707911
   7.2480436973    4.9028385304    0.4356707911
   3.9732006505    2.8230456088    4.2535019514
   6.4699460802    2.8230454944    4.2534932295
   5.2216810287    2.8347345748    6.5096070706
   1.3055056872    2.1343853921    4.3181397747
   2.7031647352    3.8869442104    6.5796524571
   7.7401397762    3.8869391201    6.5796524571
   5.2214523618    3.8315428775    2.0464573849
   3.7490631116    2.4104251552    8.7076157736
   6.6945211137    2.4104251552    8.7076157736
