Al2 Ni8 Zr10 
1.0
7.1401924865674999e+00 0.0000000000000000e+00 0.0000000000000000e+00 
5.7429074297815200e-15 7.1401924866118769e+00 0.0000000000000000e+00 
-6.3907073835447110e-14 1.5252611283348766e-14 6.6221612941860588e+00 
Al Ni Zr 
2 8 10 
Cartesian
   0.0000000000    0.0000000000    3.3110806471
   3.5700962433    3.5700962433    6.6221612942
   0.9406560984    4.4606567512    6.4045372076
   6.1995363882    2.6795357354    6.4045372076
   2.6294401449    0.8905605079    3.0934565605
   4.5107523417    6.2496319787    3.0934565605
   6.2496319787    2.6294401449    3.5287047337
   0.8905605079    4.5107523417    3.5287047337
   4.4606567512    6.1995363882    0.2176260733
   2.6795357354    0.9406560984    0.2176260733
   2.2727732498    5.8428694931    1.6555403235
   4.8674192367    1.2973229935    1.6555403235
   1.2973229935    2.2727732498    4.9666209706
   5.8428694931    4.8674192368    4.9666209706
   6.0177970688    4.6924916610    1.6555403235
   1.1223954177    2.4477008256    1.6555403235
   4.6924916610    1.1223954177    4.9666209706
   2.4477008256    6.0177970689    4.9666209706
   0.0000000000    7.1401924866    0.0000000000
   3.5700962433    3.5700962433    3.3110806471
