Zr3 Nb3 Ta6 W12 
1.0
9.6618697263475362e+00 0.0000000000000000e+00 0.0000000000000000e+00 
-1.6967575862314718e-06 6.4666446926871632e+00 0.0000000000000000e+00 
-3.9248216234659120e-07 3.2774458188379520e-02 6.6032433986699637e+00 
Zr Nb Ta W 
3 3 6 12 
Cartesian
   1.6103132734    4.8814346550    4.9451623780
   4.8309332949    4.8814346550    4.9451623780
   8.0515533164    4.8814346550    4.9451623780
   3.2206198259    0.0336288513    3.2120354961
  -0.0000001899    0.0336287866    3.2120354961
   6.4412495093    0.0336288513    3.2120354961
   3.2206191730    3.2128375191    0.0941094249
   1.6103141232    1.6412449766    4.9517260020
   9.6618688779    3.2128375191    0.0941094249
   4.8309341447    1.6412449766    4.9517260020
   6.4412488564    3.2128375191    0.0941094249
   8.0515541662    1.6412449766    4.9517260020
   3.2206189892    3.2215238078    3.2161030941
   1.6103134707    4.8591722990    1.6519730205
   1.6103143204    1.6196330743    1.6566943395
   3.2206200092    0.0287775302    0.0819356854
   9.6618686941    3.2215238078    3.2161030941
   0.0000000089    0.0287775269    0.0819350251
   6.4412486726    3.2215238078    3.2161030941
   4.8309334922    4.8591722990    1.6519730205
   8.0515535136    4.8591722990    1.6519730205
   4.8309343419    1.6196330743    1.6566943395
   8.0515543634    1.6196330743    1.6566943395
   6.4412496925    0.0287774655    0.0819356854
