Ta1 W1                                  
   1.00000000000000     
     1.6190638724906952   -2.3122701607438976    0.0000000000000000
     1.6190638724906952    2.3122701607438976    0.0000000000000000
     0.0000000000000000    0.0000000000000000    4.5526776915269425
   Ta   W 
     1     1
Direct
  0.0000000000000000  0.0000000000000000  0.0000000000000000
  0.5000000000000000  0.5000000000000000  0.5000000000000000
 
  0.00000000E+00  0.00000000E+00  0.00000000E+00
  0.00000000E+00  0.00000000E+00  0.00000000E+00
