Converted from final.data
1.0
14.3653660432979180 0.0000000000000000 0.0000000000000000
-0.2382746718920911 13.7499945821125120 0.0000000000000000
0.0805421200095135 -0.1926518546747055 31.6613890148493624
Al Cu W Zr Nb Ta
1 3 14 5 18 6
Direct
0.1486976496798023 0.4222563906116263 0.4262527621073012
0.9400463972967157 0.5117355158180902 -0.0087445940553805
-0.0102780855185999 0.3607950445255602 0.4261155234466145
0.3146280911419043 0.1061694957933690 0.2812231441367634
0.0673079881509375 0.2061180885843757 0.1138195632726620
0.2736825861245237 0.2788727711547951 0.3232942511116830
-0.0135758713834633 0.9250440456247919 0.1420355702820485
0.0692514511060655 0.1086061908398104 0.0420475873500356
0.4327505060740610 0.1497573394773601 0.1262010769299992
-0.0029471649761052 0.4336362016270920 0.2561390241685755
0.2861356299926171 0.9657700057845308 0.4108531289121423
0.9972133926438952 0.4415724164708832 0.1700102994287319
0.1666549713056741 0.2725021869450836 0.0536697528840261
0.4499409849302181 0.4229802618164070 0.4657888326036503
0.0989033547792686 0.0783058148434766 0.1745768468178202
0.1348887007845044 0.1403395038357493 0.3102155880281713
0.2616690881880475 0.0864654480191445 0.4587802837525175
0.8523360318977437 0.2795906355083867 0.4385275300201673
0.2526815211918511 0.3877795778946924 0.2068227310581548
0.0861171361818839 0.0212938267161913 0.9834055280286941
0.4603203484132906 0.3826081577314823 0.1296755778857089
0.4249336899358830 0.4237598510551942 0.0240967966702263
0.5806400305911621 0.0201069261034648 0.1413282311689092
0.1203123273204183 0.6018622820339217 0.3246520659320368
0.1554572811275681 0.2468108601371894 0.4717740810233318
0.4417353956177753 0.1840717789270365 0.3457478067336876
0.2748013442272531 0.0768138874110240 0.1916697278576076
0.9895375341639190 0.1608599122274518 0.4229441303589746
0.4356293158117354 0.6692612359262716 0.3414818944588344
0.5133799439994640 0.1109572743005988 0.2828440343241708
-0.0003834452394235 0.4458908023539504 0.3462746131316778
0.3997574288842708 0.2112223011143816 0.2092379505526600
0.4002504600582435 0.3007913519825797 0.2746982357182618
0.2571706986750180 0.4333457134679123 0.0793358364675101
0.8048271028479794 0.2173261753056684 0.3070763262457084
0.9667170286120551 0.0790761560801337 0.1370653515566123
0.7027435900550936 0.4241449427248338 0.3065948375465004
0.6716520192665879 0.2420547124589081 0.4260324655114244
0.5914253161261931 0.2958530614255953 0.2769854977853675
0.9235777875546067 0.2638169326463607 0.3604277372911361
0.5341072830632829 0.4005505434777568 0.2015727179528494
0.1597773639878528 0.3864701412577466 0.2858215983046977
0.0631727611821086 0.2888396536776533 0.1996871039500899
0.2705994178381441 0.1356078343260802 0.3687950088496492
0.9068041573652630 0.1777404814332525 -0.0171446882838682
0.2395467448937950 0.2466608321143227 0.1478458945378766
0.1096501365532274 0.2690518214421464 0.3715308781406170
