bcc_Al6_Cu3_Nb0_Ni3_Ta12_W0_Zr0         
   1.00000000000000     
    11.0353385574522918    0.0000000000000000    0.0000000000000000
     0.0000000000000000    5.8342935330589780   -0.0848783592376540
     0.0000000000000000   -0.0872748765470777    5.9328117154643474
   Al   Cu   Ni   Ta
     6     3     3    12
Direct
  0.1666666666666643  0.7527264108974785  0.7611309228682194
  0.5000000000000000  0.7527264108974785  0.7611309228682194
  0.8333333333333357  0.7527264108974785  0.7611309228682194
 -0.0000000000000000  0.4795101583773487  0.4789327579377922
  0.3333333333333357  0.4795101583773487  0.4789327579377922
  0.6666666666666643  0.4795101583773487  0.4789327579377922
 -0.0000000000000000  0.5061084579649656 -0.0051122579849591
  0.3333333333333357  0.5061084579649657 -0.0051122579849591
  0.6666666666666643  0.5061084579649656 -0.0051122579849591
  0.1666666666666643  0.2541695036867923  0.2452725429693041
  0.5000000000000000  0.2541695036867923  0.2452725429693041
  0.8333333333333357  0.2541695036867923  0.2452725429693041
  0.1666666666666643  0.7283567003424719  0.2509107583683628
  0.5000000000000000  0.7283567003424719  0.2509107583683628
  0.8333333333333357  0.7283567003424719  0.2509107583683628
  0.1666666666666643  0.2612466284935668  0.7523255842690163
  0.5000000000000000  0.2612466284935668  0.7523255842690163
  0.8333333333333357  0.2612466284935668  0.7523255842690163
 -0.0000000000000000  0.0178920948402827  0.0158880093109571
  0.3333333333333357  0.0178920948402827  0.0158880093109571
  0.6666666666666643  0.0178920948402827  0.0158880093109571
 -0.0000000000000000 -0.0000099546029069  0.5006516822613070
  0.3333333333333357 -0.0000099546029069  0.5006516822613070
  0.6666666666666643 -0.0000099546029069  0.5006516822613070
 
  0.00000000E+00  0.00000000E+00  0.00000000E+00
  0.00000000E+00  0.00000000E+00  0.00000000E+00
  0.00000000E+00  0.00000000E+00  0.00000000E+00
  0.00000000E+00  0.00000000E+00  0.00000000E+00
  0.00000000E+00  0.00000000E+00  0.00000000E+00
  0.00000000E+00  0.00000000E+00  0.00000000E+00
  0.00000000E+00  0.00000000E+00  0.00000000E+00
  0.00000000E+00  0.00000000E+00  0.00000000E+00
  0.00000000E+00  0.00000000E+00  0.00000000E+00
  0.00000000E+00  0.00000000E+00  0.00000000E+00
  0.00000000E+00  0.00000000E+00  0.00000000E+00
  0.00000000E+00  0.00000000E+00  0.00000000E+00
  0.00000000E+00  0.00000000E+00  0.00000000E+00
  0.00000000E+00  0.00000000E+00  0.00000000E+00
  0.00000000E+00  0.00000000E+00  0.00000000E+00
  0.00000000E+00  0.00000000E+00  0.00000000E+00
  0.00000000E+00  0.00000000E+00  0.00000000E+00
  0.00000000E+00  0.00000000E+00  0.00000000E+00
  0.00000000E+00  0.00000000E+00  0.00000000E+00
  0.00000000E+00  0.00000000E+00  0.00000000E+00
  0.00000000E+00  0.00000000E+00  0.00000000E+00
  0.00000000E+00  0.00000000E+00  0.00000000E+00
  0.00000000E+00  0.00000000E+00  0.00000000E+00
  0.00000000E+00  0.00000000E+00  0.00000000E+00
