Al15 Ni3 Cu3 Zr3 
1.0
1.1325139484996763e+01 0.0000000000000000e+00 0.0000000000000000e+00 
-3.7507169197758877e-05 6.0589804308929365e+00 0.0000000000000000e+00 
-5.6343442503427712e-05 -3.1024287054284128e-01 5.4683351791682453e+00 
Al Ni Cu Zr 
15 3 3 3 
Cartesian
   1.8874780653    1.1121093136    3.9487340479
   3.7750405118    0.1655460388    0.1110646217
   1.8874558696    4.4215610133    4.1091367237
   3.7749795106    2.7369934439    5.4052305912
   1.8874825619    4.6847052854    1.4510555498
   5.6625207853    1.1121096238    3.9487285796
   5.6624985895    4.4215610133    4.1091367237
  -0.0000705567    2.7369867644    5.4052415279
   5.6625252819    4.6847052854    1.4510555498
  11.3251372771    0.1655329408    0.1110498572
   9.4375635052    1.1121153726    3.9487340479
   7.5500945570    0.1655380836    0.1110553255
   9.4375413094    4.4215607031    4.1091421920
   7.5500109053    2.7369867644    5.4052415279
   9.4375680018    4.6847049752    1.4510610181
   3.7749760222    5.8166093121    2.8804838340
  11.3250727871    5.8166086916    2.8804947706
   7.5500300672    5.8166090019    2.8804893023
   1.8874939628    1.2408085100    1.3189952552
   5.6625593330    1.2408085100    1.3189952552
   9.4376020529    1.2408081997    1.3190007236
   3.7749970636    2.8166205236    2.6486264224
  -0.0000456530    2.8166320211    2.6486373590
   7.5500511085    2.8166262723    2.6486318907
