Al2
1.0
   2.8124549999999999    0.0000000000000000    0.0000000000000000
  -1.4062280000000000    2.4356580000000001    0.0000000000000000
   0.0000000000000000    0.0000000000000000    4.8668500000000003
Al
2
direct
   0.0000000000000000    0.0000000000000000    0.0000000000000000 Al
   0.6666670000000000    0.3333330000000000    0.5000000000000000 Al
