Ni16 Cu4 Zr4 Nb4 Ta4 
1.0
8.9045641833751041e+00 0.0000000000000000e+00 0.0000000000000000e+00 
-7.5976140310738565e-05 5.7864607096867386e+00 0.0000000000000000e+00 
6.5560210654774954e-06 3.6299898880800589e-05 8.9940623052646735e+00 
Ni Cu Zr Nb Ta 
16 4 4 4 4 
Cartesian
   4.3625418181    2.9676392036    4.4871017078
   2.3196033604    2.8638288073    2.7334754158
   2.3396968054    1.2434243772    4.4913469053
   4.5240585898    2.9568699140    0.0159204796
   6.6065516925    4.2762061016    0.0159206595
   4.5240339781    4.2762150481    2.2325960860
   6.6065795357    2.9568788605    2.2325960860
   6.7680838871    4.2654729033    4.4871017078
   8.8110108836    4.3692749308    2.7334754158
   8.7909959776    0.2032235823    4.4913469053
   2.3397121105    0.2032344391    6.7512219823
   4.3625264310    4.2654820584    6.7554761737
   2.3195878040    4.3692924547    8.5091024658
   8.7909750624    1.2434392845    6.7512309763
   6.7680936765    2.9676483587    6.7554761737
   8.8110348602    2.8638463312    8.5091024658
   0.1872655993    2.7766696533    4.7379730877
   2.0387873837    4.4564444786    4.7379730877
   0.1872448316    4.4564516087    6.5046047939
   2.0388107268    2.7766767834    6.5046047939
   0.0089176376    1.8259323646    2.2054520060
   2.2171314752    5.4071613249    2.2054520060
   0.0088677042    5.4071525975    0.0430608721
   2.2171769204    1.8259236372    0.0430606023
   4.4546607007    5.5942527901    4.5354987571
   4.4547142179    1.6388684719    6.7070791245
   6.6759561705    1.6388597074    4.5354987571
   6.6759058192    5.5942615546    6.7070881185
   4.4489056778    1.6037499442    2.2826390487
   6.6817079090    5.6293443683    2.2826390487
   4.4488487845    5.6293713178    8.9599388329
   6.6817745368    1.6037768937    8.9599388329
