Al2 Zr6 
1.0
6.0972506041411627e+00 0.0000000000000000e+00 0.0000000000000000e+00 
-3.0486253020296381e+00 5.2803739164462273e+00 0.0000000000000000e+00 
-2.9649899370682049e-15 6.4761828690576020e-15 4.9595661515889615e+00 
Al Zr 
2 6 
Cartesian
  -0.0000030486    3.5202510378    3.7196746137
   3.0486283507    1.7601228787    1.2398915379
   0.0000030486    1.8552435344    1.2398915379
   1.4419387954    4.3527495090    1.2398915379
  -1.4419326981    4.3527495090    1.2398915379
   3.0486222535    3.4251303820    3.7196746137
   1.6066865067    0.9276244074    3.7196746137
   4.4905580002    0.9276244074    3.7196746137
