bcc_Al3_Cu0_Nb18_Ni3_Ta0_W0_Zr0         
   1.00000000000000     
     9.8544102815574082    0.0000000000000000    0.0000000000000000
     0.0000000000000000    6.8066601280200336   -0.0000000000000000
     0.0000000000000000    0.0000000000000000    6.0528466539667134
   Al   Nb   Ni
     3    18     3
Direct
  0.1666666666666643  0.7500000000000000  0.7500000000000000
  0.5000000000000000  0.7500000000000000  0.7500000000000000
  0.8333333333333357  0.7500000000000000  0.7500000000000000
 -0.0000000000000000  0.4906374779358639 -0.0078051948798978
  0.3333333333333357  0.4906374779358639 -0.0078051948798978
  0.6666666666666643  0.4906374779358639 -0.0078051948798978
 -0.0000000000000000  0.0093625220641362 -0.0078051948798978
  0.3333333333333357  0.0093625220641362 -0.0078051948798978
  0.6666666666666643  0.0093625220641362 -0.0078051948798978
  0.1666666666666643  0.7500000000000000  0.2500000000000000
  0.5000000000000000  0.7500000000000000  0.2500000000000000
  0.8333333333333357  0.7500000000000000  0.2500000000000000
 -0.0000000000000000  0.0093625220641362  0.5078051948798977
  0.3333333333333357  0.0093625220641362  0.5078051948798977
  0.6666666666666643  0.0093625220641362  0.5078051948798977
 -0.0000000000000000  0.4906374779358639  0.5078051948798977
  0.3333333333333357  0.4906374779358639  0.5078051948798977
  0.6666666666666643  0.4906374779358639  0.5078051948798977
  0.1666666666666643  0.2500000000000000  0.2500000000000000
  0.5000000000000000  0.2500000000000000  0.2500000000000000
  0.8333333333333357  0.2500000000000000  0.2500000000000000
  0.1666666666666643  0.2500000000000000  0.7500000000000000
  0.5000000000000000  0.2500000000000000  0.7500000000000000
  0.8333333333333357  0.2500000000000000  0.7500000000000000
 
  0.00000000E+00  0.00000000E+00  0.00000000E+00
  0.00000000E+00  0.00000000E+00  0.00000000E+00
  0.00000000E+00  0.00000000E+00  0.00000000E+00
  0.00000000E+00  0.00000000E+00  0.00000000E+00
  0.00000000E+00  0.00000000E+00  0.00000000E+00
  0.00000000E+00  0.00000000E+00  0.00000000E+00
  0.00000000E+00  0.00000000E+00  0.00000000E+00
  0.00000000E+00  0.00000000E+00  0.00000000E+00
  0.00000000E+00  0.00000000E+00  0.00000000E+00
  0.00000000E+00  0.00000000E+00  0.00000000E+00
  0.00000000E+00  0.00000000E+00  0.00000000E+00
  0.00000000E+00  0.00000000E+00  0.00000000E+00
  0.00000000E+00  0.00000000E+00  0.00000000E+00
  0.00000000E+00  0.00000000E+00  0.00000000E+00
  0.00000000E+00  0.00000000E+00  0.00000000E+00
  0.00000000E+00  0.00000000E+00  0.00000000E+00
  0.00000000E+00  0.00000000E+00  0.00000000E+00
  0.00000000E+00  0.00000000E+00  0.00000000E+00
  0.00000000E+00  0.00000000E+00  0.00000000E+00
  0.00000000E+00  0.00000000E+00  0.00000000E+00
  0.00000000E+00  0.00000000E+00  0.00000000E+00
  0.00000000E+00  0.00000000E+00  0.00000000E+00
  0.00000000E+00  0.00000000E+00  0.00000000E+00
  0.00000000E+00  0.00000000E+00  0.00000000E+00
