Ta30
1.0
   5.3081734500000000    0.0000000000000000    0.0000000000000000
   0.0000000000000000   10.2220674500000008    0.0000000000000000
   0.0000000000000000    0.0000000000000000   10.2220674500000008
Ta
30
direct
   0.2424717700000000    0.5000000000000000    0.0000000000000000 Ta
   0.7575282300000000    0.0000000000000000    0.5000000000000000 Ta
   0.2432535600000000    0.7609659800000000    0.0676680300000000 Ta
   0.7567464400000000    0.0676680300000000    0.2390340200000000 Ta
   0.7567464400000000    0.9323319700000000    0.7609659800000000 Ta
   0.2432535600000000    0.2390340200000000    0.9323319700000000 Ta
   0.7567464400000000    0.2609659800000000    0.4323319700000000 Ta
   0.7567464400000000    0.7390340200000001    0.5676680300000000 Ta
   0.2432535600000000    0.4323319700000000    0.7390340200000001 Ta
   0.2432535600000000    0.5676680300000000    0.2609659800000000 Ta
   0.2567367000000000    0.0346163600000000    0.1282480400000000 Ta
   0.7432633000000000    0.1282480400000000    0.9653836400000000 Ta
   0.7432633000000000    0.8717519600000000    0.0346163600000000 Ta
   0.2567367000000000    0.9653836400000000    0.8717519600000000 Ta
   0.7432633000000000    0.5346163600000000    0.3717519600000000 Ta
   0.7432633000000000    0.4653836400000000    0.6282480400000000 Ta
   0.2567367000000000    0.3717519600000000    0.4653836400000000 Ta
   0.2567367000000000    0.6282480400000000    0.5346163600000000 Ta
   0.7405859600000000    0.6050522900000000    0.1050522900000000 Ta
   0.2594140400000000    0.1050522900000000    0.3949477100000000 Ta
   0.2594140400000000    0.8949477100000001    0.6050522900000000 Ta
   0.7405859600000000    0.3949477100000000    0.8949477100000001 Ta
   0.0022263700000000    0.8190454200000000    0.3190454200000000 Ta
   0.9977736300000000    0.3190454200000000    0.1809545800000000 Ta
   0.9977736300000000    0.6809545800000000    0.8190454200000000 Ta
   0.0022263700000000    0.1809545800000000    0.6809545800000000 Ta
   0.4992369300000000    0.3188703700000000    0.1811296300000000 Ta
   0.5007630700000000    0.1811296300000000    0.6811296300000000 Ta
   0.5007630700000000    0.8188703700000001    0.3188703700000000 Ta
   0.4992369300000000    0.6811296300000000    0.8188703700000001 Ta
