Ta4 Al4 Ni4
1.0
  -2.4125500000000000   -4.2867449999999998    0.0000000000000000
  -2.5062310000000001    4.3408270000000000    0.0000000000000000
   0.0000000000000000    0.0000000000000000   -7.9892430000000001
Ta Al Ni
4 4 4
direct
   0.6664120000000000    0.3331880000000000    0.5507270000000000 Ta
   0.3265050000000000    0.6632749999999999    0.4298490000000000 Ta
   0.3265050000000000    0.6632749999999999    0.0701509999999990 Ta
   0.6664120000000000    0.3331880000000000    0.9492729999999990 Ta
   0.9857650000000000    0.9929290000000000    0.4881230000000000 Al
   0.9857650000000000    0.9929290000000000    0.0118769999999990 Al
   0.1847410000000000    0.3500900000000000    0.7500000000000000 Al
   0.1847790000000000    0.8346770000000000    0.7500000000000000 Al
   0.6756890000000000    0.8378620000000000    0.7500000000000000 Ni
   0.8277760000000000    0.6544209999999990    0.2500000000000000 Ni
   0.8277730000000000    0.1732580000000000    0.2500000000000000 Ni
   0.3418790000000000    0.1709080000000000    0.2500000000000000 Ni
