Nb4 Al1                                 
   1.00000000000000     
     0.0000000000000000    2.2393267944828890   11.5785389899961295
     1.7025111824756347    0.0000000000000000   11.5785389899961295
     1.7025111824756347    2.2393267944828890    0.0000000000000000
   Nb   Al
     4     1
Direct
  0.4040312799912680  0.4040312799912680  0.5959687200087321
  0.8007729984232498  0.8007729984232498  0.1992270015767502
  0.1992270015767502  0.1992270015767502  0.8007729984232498
  0.5959687200087321  0.5959687200087321  0.4040312799912680
 -0.0000000000000000 -0.0000000000000000  0.0000000000000000
 
  0.00000000E+00  0.00000000E+00  0.00000000E+00
  0.00000000E+00  0.00000000E+00  0.00000000E+00
  0.00000000E+00  0.00000000E+00  0.00000000E+00
  0.00000000E+00  0.00000000E+00  0.00000000E+00
  0.00000000E+00  0.00000000E+00  0.00000000E+00
