Al6 Cu6 Zr12 
1.0
9.3622070833135158e+00 0.0000000000000000e+00 0.0000000000000000e+00 
4.0692342848207685e-05 4.9038026981812317e+00 0.0000000000000000e+00 
-7.5717249583344436e-05 9.8085907153836094e-01 9.7930369667308099e+00 
Al Cu Zr 
6 6 12 
Cartesian
   4.8196054980    3.6644761021    4.9405969428
   7.6633103641    3.6644761021    4.9405969428
   6.2414429982    1.2250904807    4.8672177168
   6.2414394003    3.3261955564    7.3235268348
   4.8000499587    0.8264275929    7.4104792101
   7.6827858661    0.8264275929    7.4104792101
   3.5507681791    4.1729484326    2.7932189688
   8.9321928972    4.1729484326    2.7932189688
   6.2414854933    4.3681870726    2.9504167982
   1.5603142797    2.9172603756    9.4473035897
   4.9422501054    2.5904322600    9.4021674823
   7.5405715239    2.5904322600    9.4021674823
   1.5603643938    1.5657248087    2.2850680737
   3.1409143943    4.3182922617    0.1731595003
   1.5603619557    3.6870421935    4.6255255644
   9.3420939646    4.3182923598    0.1731604796
   4.7054879832    1.7992128683    2.2233131826
   6.2415066802    4.0638028321    0.1811721632
   7.7774434580    1.7992138491    2.2233229756
   3.2810940406    1.2354801937    4.9185626096
   1.5603145046    0.7785237305    7.3484207348
   3.2731882301    3.2828955708    7.3823829870
   9.2017818867    1.2354801937    4.9185626096
   9.2096794817    3.2828965516    7.3823927800
