Al3 Zr3 Nb3 Ta3 W12 
1.0
9.6371969566924314e+00 0.0000000000000000e+00 0.0000000000000000e+00 
1.0107926133102701e-07 6.6959006522842053e+00 0.0000000000000000e+00 
3.5301370186047212e-09 -2.6784014033525310e-03 6.3429741815579375e+00 
Al Zr Nb Ta W 
3 3 3 3 12 
Cartesian
   1.6062027304    1.4968478833    4.7110537841
   4.8185985036    1.4968478833    4.7110537841
   8.0309942768    1.4968478833    4.7110537841
   3.2123958279    3.3923086184    6.2843016704
   0.0000001071    3.3923086211    6.2842953274
   6.4248012383    3.3923086211    6.2842953274
   3.2123958265    3.4137455857    3.2158371663
   0.0000000768    3.4137455857    3.2158371663
   6.4248012369    3.4137455857    3.2158371663
   1.6062027302    1.5973494108    1.6282351294
   4.8185985034    1.5973494108    1.6282351294
   8.0309942765    1.5973494108    1.6282351294
   1.6062027867    5.2243752112    4.7432760930
   3.2123958733    6.6315293516    0.0402582228
   3.2123958749    6.6188291334    3.1437556077
   1.6062027830    5.0937977658    1.6051784183
   0.0000001666    6.6315293516    0.0402582228
   0.0000002117    6.6188291334    3.1437556077
   4.8185985599    5.2243752112    4.7432760930
   4.8185985561    5.0937977658    1.6051784183
   8.0309943330    5.2243752112    4.7432760930
   6.4248012837    6.6315293515    0.0402583497
   6.4248012852    6.6188291334    3.1437556077
   8.0309943293    5.0937977658    1.6051784183
