hcp_Al21_Cu0_Nb3_Ni0_Ta0_W0_Zr0         
   1.00000000000000     
     8.3868616088130317    0.0000000000000000    0.0000000000000000
     0.0000000000000000    4.9909640794920040   -0.0172571899333618
     0.0000000000000000   -0.0349755555591730    9.4880613337320128
   Al   Nb
    21     3
Direct
  0.4971982643307589  0.4924660695701777 -0.0021491402293314
  0.6666669999999968  0.6651354804000800  0.2493870587859760
  0.8361347356692445  0.4924660695701777 -0.0021491402293314
 -0.0016068600444122  0.6665004305439601  0.7469278407379422
  0.1666669999999968  0.4952931535829701  0.5097118590861920
  0.3349398600444155  0.6665004305439601  0.7469278407379422
  0.4974123257797821  0.1702888464031247  0.2444633267262387
  0.6666669999999968 -0.0042815044674067 -0.0007075382529424
  0.8359206742202206  0.1702888464031247  0.2444633267262387
  0.0044384574895372  0.6755912258880855  0.2488347005765823
  0.1666669999999968  0.4868770711732467  0.0095218189854734
  0.3288945425104660  0.6755912258880855  0.2488347005765823
  0.5018502613211959  0.5101097844108797  0.4997841722499597
  0.6666669999999968  0.6605369102605400  0.7519033877450600
  0.8314827386788073  0.5101097844108797  0.4997841722499597
 -0.0017235987404108  0.0013899446081787  0.5010655039611441
  0.1666669999999968  0.1636448635190536  0.7552956720804724
  0.3350565987404142  0.0013899446081787  0.5010655039611441
  0.4988294590135767  0.1692858843757513  0.7461234808637665
  0.6666669999999968  0.0111204031140633  0.5018981187762146
  0.8345035409864260  0.1692858843757513  0.7461234808637665
 -0.0079556476378051 -0.0128268454268925 -0.0085788579548243
  0.1666669999999968  0.1760669416708850  0.2700475689305983
  0.3412886476378084 -0.0128268454268925 -0.0085788579548243
 
  0.00000000E+00  0.00000000E+00  0.00000000E+00
  0.00000000E+00  0.00000000E+00  0.00000000E+00
  0.00000000E+00  0.00000000E+00  0.00000000E+00
  0.00000000E+00  0.00000000E+00  0.00000000E+00
  0.00000000E+00  0.00000000E+00  0.00000000E+00
  0.00000000E+00  0.00000000E+00  0.00000000E+00
  0.00000000E+00  0.00000000E+00  0.00000000E+00
  0.00000000E+00  0.00000000E+00  0.00000000E+00
  0.00000000E+00  0.00000000E+00  0.00000000E+00
  0.00000000E+00  0.00000000E+00  0.00000000E+00
  0.00000000E+00  0.00000000E+00  0.00000000E+00
  0.00000000E+00  0.00000000E+00  0.00000000E+00
  0.00000000E+00  0.00000000E+00  0.00000000E+00
  0.00000000E+00  0.00000000E+00  0.00000000E+00
  0.00000000E+00  0.00000000E+00  0.00000000E+00
  0.00000000E+00  0.00000000E+00  0.00000000E+00
  0.00000000E+00  0.00000000E+00  0.00000000E+00
  0.00000000E+00  0.00000000E+00  0.00000000E+00
  0.00000000E+00  0.00000000E+00  0.00000000E+00
  0.00000000E+00  0.00000000E+00  0.00000000E+00
  0.00000000E+00  0.00000000E+00  0.00000000E+00
  0.00000000E+00  0.00000000E+00  0.00000000E+00
  0.00000000E+00  0.00000000E+00  0.00000000E+00
  0.00000000E+00  0.00000000E+00  0.00000000E+00
