fcc_Al16_Cu4_Nb8_Ni0_Ta0_W4_Zr0         
   1.00000000000000     
     6.9196768745370205    0.0000000000000000    0.0000000000000000
     0.0000000000000000    8.5620756191017691    0.0000000000000000
     0.0000000000000000    0.0000000000000000    8.6196168032188343
   Al   Cu   Nb   W 
    16     4     8     4
Direct
  0.0055366208598367  0.4639241820003684  0.4975783427413370
  0.2444633791401632  0.7860758179996312  0.4975783427413370
  0.0055366208598367  0.7860758179996312  0.7524216572586629
  0.2444633791401632  0.4639241820003684  0.7524216572586628
  0.4759686325415527  0.5180658582180092  0.5026180704124223
  0.7740313674584475  0.7319341417819905  0.5026180704124223
  0.4759686325415527  0.7319341417819905  0.7473819295875773
  0.7740313674584475  0.5180658582180092  0.7473819295875773
  0.5391547306348772 -0.0087279514423127  0.4870070000413269
  0.7108452693651228  0.2587279514423128  0.4870070000413269
  0.5391547306348772  0.2587279514423128  0.7629929999586733
  0.7108452693651228 -0.0087279514423127  0.7629929999586733
 -0.0083036018488824  0.0124524848229003 -0.0178390825651043
  0.2583036018488826  0.2375475151770997 -0.0178390825651043
 -0.0083036018488824  0.2375475151770997  0.2678390825651043
  0.2583036018488826  0.0124524848229003  0.2678390825651043
  0.4943655430791910  0.0143677419492198  0.0189263330340268
  0.7556344569208093  0.2356322580507801  0.0189263330340268
  0.4943655430791910  0.2356322580507801  0.2310736669659732
  0.7556344569208093  0.0143677419492198  0.2310736669659732
  0.0010079147435554  0.4864666707327001  0.0021750451927549
  0.2489920852564448  0.7635333292672997  0.0021750451927549
  0.0010079147435554  0.7635333292672997  0.2478249548072455
  0.2489920852564448  0.4864666707327001  0.2478249548072455
  0.5070873855320339  0.4926511922102498 -0.0031620846041908
  0.7429126144679661  0.7573488077897503 -0.0031620846041908
  0.5070873855320339  0.7573488077897503  0.2531620846041910
  0.7429126144679661  0.4926511922102498  0.2531620846041910
 -0.0341685314999695  0.0121588030627091  0.5111407850667979
  0.2841685314999698  0.2378411969372910  0.5111407850667979
 -0.0341685314999695  0.2378411969372910  0.7388592149332021
  0.2841685314999698  0.0121588030627091  0.7388592149332021
 
  0.00000000E+00  0.00000000E+00  0.00000000E+00
  0.00000000E+00  0.00000000E+00  0.00000000E+00
  0.00000000E+00  0.00000000E+00  0.00000000E+00
  0.00000000E+00  0.00000000E+00  0.00000000E+00
  0.00000000E+00  0.00000000E+00  0.00000000E+00
  0.00000000E+00  0.00000000E+00  0.00000000E+00
  0.00000000E+00  0.00000000E+00  0.00000000E+00
  0.00000000E+00  0.00000000E+00  0.00000000E+00
  0.00000000E+00  0.00000000E+00  0.00000000E+00
  0.00000000E+00  0.00000000E+00  0.00000000E+00
  0.00000000E+00  0.00000000E+00  0.00000000E+00
  0.00000000E+00  0.00000000E+00  0.00000000E+00
  0.00000000E+00  0.00000000E+00  0.00000000E+00
  0.00000000E+00  0.00000000E+00  0.00000000E+00
  0.00000000E+00  0.00000000E+00  0.00000000E+00
  0.00000000E+00  0.00000000E+00  0.00000000E+00
  0.00000000E+00  0.00000000E+00  0.00000000E+00
  0.00000000E+00  0.00000000E+00  0.00000000E+00
  0.00000000E+00  0.00000000E+00  0.00000000E+00
  0.00000000E+00  0.00000000E+00  0.00000000E+00
  0.00000000E+00  0.00000000E+00  0.00000000E+00
  0.00000000E+00  0.00000000E+00  0.00000000E+00
  0.00000000E+00  0.00000000E+00  0.00000000E+00
  0.00000000E+00  0.00000000E+00  0.00000000E+00
  0.00000000E+00  0.00000000E+00  0.00000000E+00
  0.00000000E+00  0.00000000E+00  0.00000000E+00
  0.00000000E+00  0.00000000E+00  0.00000000E+00
  0.00000000E+00  0.00000000E+00  0.00000000E+00
  0.00000000E+00  0.00000000E+00  0.00000000E+00
  0.00000000E+00  0.00000000E+00  0.00000000E+00
  0.00000000E+00  0.00000000E+00  0.00000000E+00
  0.00000000E+00  0.00000000E+00  0.00000000E+00
