Ta4 Al4 Cu4                             
   1.00000000000000     
    -2.5330015447530556   -4.3872875882809126    0.0000000000000000
    -2.5259248696411594    4.3832018588685440    0.0000000000000000
     0.0000000000000000    0.0000000000000000   -7.9368724398393802
   Ta   Al   Cu
     4     4     4
Direct
  0.6643147933082288  0.3286288584111960  0.5642379271682070
  0.3328785788799282  0.6657595398240924  0.4324732912966058
  0.3328785788799282  0.6657595398240924  0.0675267087033943
  0.6643147933082288  0.3286288584111960  0.9357620728317930
  0.1692784417337853  0.3385567550108823  0.7500000000000000
  0.1684139397419048  0.8274517619343158  0.7500000000000000
  0.6590380458653693  0.8274507111734642  0.7500000000000000
  0.8317363987346262  0.6634768377234667  0.2500000000000000
  0.8306005575793849  0.1747797157163488  0.2500000000000000
  0.3441821000950564  0.1747796387012886  0.2500000000000000
  0.0011823859367819  0.0023643916348237  0.4997799875128043
  0.0011823859367819  0.0023643916348237  0.0002200124871957
 
  0.00000000E+00  0.00000000E+00  0.00000000E+00
  0.00000000E+00  0.00000000E+00  0.00000000E+00
  0.00000000E+00  0.00000000E+00  0.00000000E+00
  0.00000000E+00  0.00000000E+00  0.00000000E+00
  0.00000000E+00  0.00000000E+00  0.00000000E+00
  0.00000000E+00  0.00000000E+00  0.00000000E+00
  0.00000000E+00  0.00000000E+00  0.00000000E+00
  0.00000000E+00  0.00000000E+00  0.00000000E+00
  0.00000000E+00  0.00000000E+00  0.00000000E+00
  0.00000000E+00  0.00000000E+00  0.00000000E+00
  0.00000000E+00  0.00000000E+00  0.00000000E+00
  0.00000000E+00  0.00000000E+00  0.00000000E+00
