Zr3 Nb1 Al12
1.0
   3.9814940000000001    0.0000000000000000    0.0000000000000000
   0.0000000000000000    3.9814940000000001    0.0000000000000000
   0.0000000000000000    0.0000000000000000   17.1928470000000004
Zr Nb Al
3 1 12
direct
   0.0000000000000000    0.0000000000000000    0.8810910000000000 Zr
   0.0000000000000000    0.0000000000000000    0.1231000000000000 Zr
   0.5000000000000000    0.5000000000000000    0.6164800000000000 Zr
   0.5000000000000000    0.5000000000000000    0.3813950000000000 Nb
   0.5000000000000000    0.0000000000000000    0.0012270000000000 Al
   0.0000000000000000    0.5000000000000000    0.4966190000000000 Al
   0.0000000000000000    0.5000000000000000    0.0012270000000000 Al
   0.5000000000000000    0.0000000000000000    0.4966190000000000 Al
   0.5000000000000000    0.5000000000000000    0.1242330000000000 Al
   0.0000000000000000    0.0000000000000000    0.6236849999999990 Al
   0.0000000000000000    0.0000000000000000    0.3739710000000000 Al
   0.5000000000000000    0.5000000000000000    0.8746820000000000 Al
   0.0000000000000000    0.5000000000000000    0.2537910000000000 Al
   0.5000000000000000    0.0000000000000000    0.7490450000000000 Al
   0.5000000000000000    0.0000000000000000    0.2537910000000000 Al
   0.0000000000000000    0.5000000000000000    0.7490450000000000 Al
