Ta10 Al6
1.0
   7.8189659999999996    0.0000000000000000    0.0000000000000000
  -3.9094829999999998    6.7714229999999986    0.0000000000000000
   0.0000000000000000    0.0000000000000000    5.2340470000000003
Ta Al
10 6
direct
   0.6666670000000000    0.3333330000000000    0.5000000000000000 Ta
   0.3333330000000000    0.6666670000000000    0.5000000000000000 Ta
   0.3333330000000000    0.6666670000000000    0.0000000000000000 Ta
   0.6666670000000000    0.3333330000000000    0.0000000000000000 Ta
   0.7700650000000000    0.7700650000000000    0.2500000000000000 Ta
   0.2299350000000000    0.0000000000000000    0.2500000000000000 Ta
   0.0000000000000000    0.2299350000000000    0.2500000000000000 Ta
   0.2299350000000000    0.2299350000000000    0.7500000000000000 Ta
   0.7700650000000000    0.0000000000000000    0.7500000000000000 Ta
   0.0000000000000000    0.7700650000000000    0.7500000000000000 Ta
   0.4046059999999990    0.4046059999999990    0.2500000000000000 Al
   0.5953940000000000    0.0000000000000000    0.2500000000000000 Al
   0.0000000000000000    0.5953940000000000    0.2500000000000000 Al
   0.5953940000000000    0.5953940000000000    0.7500000000000000 Al
   0.4046059999999990    0.0000000000000000    0.7500000000000000 Al
   0.0000000000000000    0.4046059999999990    0.7500000000000000 Al
