Al6 Zr12 Nb3 Ta3 
1.0
8.8822202533998631e+00 0.0000000000000000e+00 0.0000000000000000e+00 
1.5672588972763169e-04 5.4331909658484037e+00 0.0000000000000000e+00 
5.0174540447959200e-06 -2.4359654822344614e-02 1.0053109134091322e+01 
Al Zr Nb Ta 
6 12 3 3 
Cartesian
   4.5287360336    0.9726351385    2.4501236519
   7.3142891273    0.9726351385    2.4501236519
   1.4804018797    0.8512799706    7.5936059313
   2.9552513729    0.0196381794    5.0876372581
   0.0054951249    0.0196376904    5.0876372581
   5.9214895093    0.0239443141    9.9982995831
   3.1417137351    3.6901723371    2.6601632611
   1.4804031330    0.9910909005    2.7083076007
   3.0394095520    5.3238165644    0.0533328498
   8.7014595627    3.6901723371    2.6601632611
   8.8038550276    5.3238165640    0.0533330509
   5.9216344164    5.1485676556    4.8702387731
   1.4804521400    2.5458381650   10.0173703311
   1.4804536080    2.6923372968    5.1702134966
   3.0425552004    3.6847332928    7.4565116821
   4.4135558636    1.0279014150    7.4907626249
   8.8006232418    3.6847332928    7.4565116821
   7.4294782218    1.0279014150    7.4907626249
   5.9215912260    3.7025509727    2.2715000088
   4.5667200752    2.6874778533    0.0116896548
   7.2763923613    2.6874778545    0.0116891521
   4.5417936973    2.4906533989    4.9498191850
   7.3013130034    2.4906533989    4.9498191850
   5.9215955743    3.7475060964    7.6345924573
