Al2 Ni9 Ta1 
1.0
3.6088133445955255e+00 0.0000000000000000e+00 0.0000000000000000e+00 
-1.0139427104847101e-16 3.6088133445955251e+00 0.0000000000000000e+00 
4.2916729270646965e-17 -3.6785767946268426e-17 1.0851419958202271e+01 
Al Ni Ta 
2 9 1 
Cartesian
   0.0000000000    3.6088133446    3.6718817826
   0.0000000000    3.6088133446    7.1795381756
   1.8044066723    1.8044066723    0.0000000000
   1.8044066723    1.8044066723    3.6245478888
   1.8044066723    3.6088133446    1.8477146820
   3.6088133446    1.8044066723    1.8477146820
   1.8044066723    1.8044066723    7.2268720694
   1.8044066723    3.6088133446    5.4257099791
   1.8044066723    3.6088133446    9.0037052762
   3.6088133446    1.8044066723    5.4257099791
   3.6088133446    1.8044066723    9.0037052762
  -0.0000000000    3.6088133446    0.0000000000
