Ni4 Zr8 Nb16 W4 
1.0
9.2951341756937573e+00 0.0000000000000000e+00 0.0000000000000000e+00 
0.0000000000000000e+00 6.6471215913809285e+00 0.0000000000000000e+00 
0.0000000000000000e+00 0.0000000000000000e+00 9.2951342955955187e+00 
Ni Zr Nb W 
4 8 16 4 
Cartesian
   2.4780270004    0.0082377113    2.4780270324
   9.1408907192    1.6535446142    2.4780270324
   2.4780270004    1.6535446142    9.1408908371
   9.1408907192    0.0082377113    9.1408908371
   0.0932218302    3.0230045458    0.0932218314
   2.2305626433    3.0230045458    2.2305626720
   2.2305626433    5.2858974434    0.0932218314
   0.0932218302    5.2858974434    2.2305626720
   4.6223122083    3.2494387428    4.6223122679
   6.9966055113    5.0594632464    4.6223122679
   4.6223122083    5.0594632464    6.9966056016
   6.9966055113    3.2494387428    6.9966056016
   4.6066592023    5.0085529421    2.2983799719
   2.2983799422    5.0085529421    4.6066592618
   4.6066592023    3.3003490471    0.0254036020
   0.0254036017    3.3003490471    4.6066592618
   4.6914773017    0.0781422320    0.0089354405
   4.6914773017    1.5836368364    2.3148509498
   6.9274404179    1.5836368364    0.0089354405
   6.9274404179    0.0781422320    2.3148509498
   7.0122585173    3.3003490471    2.2983799719
   7.0122585173    5.0085529421    0.0254036950
   0.0089354775    0.0781422320    4.6914773622
   2.3148509200    1.5836368364    4.6914773622
   0.0089354404    1.5836368364    6.9274405073
   2.3148509200    0.0781422320    6.9274405073
   2.2983799422    3.3003490471    7.0122586077
   0.0254036947    5.0085529421    7.0122586077
   4.6533114808    0.0813414916    4.6533115408
   6.9656062388    1.5804395709    4.6533115408
   4.6533114808    1.5804395709    6.9656063287
   6.9656062388    0.0813421563    6.9656063287
