Al6 W3                                  
   1.00000000000000     
     2.4329560417724738   -4.2140039974046166   -0.0000000000000000
     2.4329560417724738    4.2140039974046166    0.0000000000000000
     0.0000000000000000    0.0000000000000000    6.7924358280223585
   Al   W 
     6     3
Direct
  0.1687007584984439  0.8312992415015561  0.1666669999999968
  0.3374005169969201  0.1687007584984808  0.8333330000000032
  0.8312992415015191  0.6625994830030798  0.5000000000000000
  0.8312992415015561  0.1687007584984439  0.1666669999999968
  0.6625994830030798  0.8312992415015191  0.8333330000000032
  0.1687007584984808  0.3374005169969201  0.5000000000000000
  0.5000000000000000  0.0000000000000000  0.5000000000000000
  0.0000000000000000  0.5000000000000000  0.8333330000000032
  0.5000000000000000  0.5000000000000000  0.1666669999999968
 
  0.00000000E+00  0.00000000E+00  0.00000000E+00
  0.00000000E+00  0.00000000E+00  0.00000000E+00
  0.00000000E+00  0.00000000E+00  0.00000000E+00
  0.00000000E+00  0.00000000E+00  0.00000000E+00
  0.00000000E+00  0.00000000E+00  0.00000000E+00
  0.00000000E+00  0.00000000E+00  0.00000000E+00
  0.00000000E+00  0.00000000E+00  0.00000000E+00
  0.00000000E+00  0.00000000E+00  0.00000000E+00
  0.00000000E+00  0.00000000E+00  0.00000000E+00
