Ta2 Ni6
1.0
   4.2069476400000001    0.0000000000000000    0.0000000000000000
  -0.0000000000000000    4.5083417399999997    0.0000000000000000
   0.0000000000000000    0.0000000000000000    5.0673610499999997
Ta Ni
2 6
direct
   0.2500000000000000    0.6502780200000000    0.2500000000000000 Ta
   0.7500000000000000    0.3497219800000000    0.7500000000000000 Ta
   0.7500000000000000    0.3184555500000000    0.2500000000000000 Ni
   0.2500000000000000    0.6815444500000000    0.7500000000000000 Ni
   0.2500000000000000    0.1578675000000000    0.4993544600000000 Ni
   0.7500000000000000    0.8421325000000000    0.5006455400000001 Ni
   0.2500000000000000    0.1578675000000000    0.0006445400000000 Ni
   0.7500000000000000    0.8421325000000000    0.9993544600000001 Ni
