Ni9 Zr12 Ta3 
1.0
1.4054435419248238e+01 0.0000000000000000e+00 0.0000000000000000e+00 
1.3854834707998287e-04 5.6590254942730578e+00 0.0000000000000000e+00 
1.5450817902164828e-03 1.9857727383368791e+00 5.2992139724678911e+00 
Ni Zr Ta 
9 12 3 
Cartesian
   2.3429369778    4.9052418631    1.4387577904
   4.6864214776    4.8152854855    5.2992139725
   2.3435678283    2.7395563695    3.8604561821
   7.0283749499    2.7395563695    3.8604561821
   7.0277440994    4.9052418631    1.4387577904
   0.0016143846    4.8152854855    5.2992139725
   9.3696975718    2.8295127729    0.0000000688
  11.7125512210    4.9052418631    1.4387577904
  11.7131820716    2.7395563695    3.8604561821
   2.3428169964    1.9491010750    1.2701738963
   0.0008418265    3.8223991163    2.6496069862
   4.6856489367    3.8223991163    2.6496069862
   2.3436878097    5.6956971576    4.0290400762
   4.6864907517    7.6447982326    5.2992139725
   0.0008825986    5.6590255189    0.0000000656
   7.0276241180    1.9491010750    1.2701738963
   7.0284949313    5.6956971576    4.0290400762
   9.3696282977    0.0000001168    0.0000000789
  11.7124312396    1.9491010750    1.2701738963
   9.3704701127    3.8223991163    2.6496069862
  11.7133020530    5.6956971576    4.0290400762
   4.6857182108    6.6519118634    2.6496069862
   9.3704008385    0.9928864737    2.6496069862
   0.0007726289    0.9928864346    2.6496069862
