Al3 Ni3 Cu6 Ta6 W6 
1.0
1.0913915600362273e+01 0.0000000000000000e+00 0.0000000000000000e+00 
-2.6031397611876061e-04 5.6992316170633162e+00 0.0000000000000000e+00 
1.4631177064435106e-04 3.1344233011992177e-02 5.6638770707630357e+00 
Al Ni Cu Ta W 
3 3 6 6 6 
Cartesian
   1.8188972733    4.3878307431    4.1447742655
   5.4568655021    4.3878307431    4.1447742655
   9.0948337309    4.3878307431    4.1447742655
   0.0000725587    0.0246066535    2.8222929527
   3.6380407250    0.0246065965    2.8222929527
   7.2760198677    0.0246065965    2.8222929527
   1.8188312886    4.3185332532    1.4938532413
   1.8189655684    1.3617160260    1.4641915171
   5.4567995175    4.3185332532    1.4938532413
   5.4569337972    1.3617160260    1.4641915171
   9.0947677463    4.3185332532    1.4938532413
   9.0949020260    1.3617160260    1.4641915171
  10.9136576174    5.6845953483    0.0637344759
   3.6377102459    5.6845953483    0.0637344759
  -0.0000573826    2.8433426919    2.7788396878
   3.6379108450    2.8433426919    2.7788396878
   7.2756893886    5.6845953483    0.0637344759
   7.2758899877    2.8433426919    2.7788396878
   1.8190341310    1.4373150323    4.2249747648
   3.6379851146    2.8643638423    5.6628405813
   0.0000170436    2.8643638423    5.6628405813
   5.4570023598    1.4373150323    4.2249747648
   9.0949705886    1.4373150323    4.2249747648
   7.2759642573    2.8643638423    5.6628405813
