Al4 Cu4 Nb4 
1.0
4.9656388141539596e+00 0.0000000000000000e+00 0.0000000000000000e+00 
-2.6488580871093048e+00 4.3920491679827176e+00 0.0000000000000000e+00 
-1.2841402098165850e-10 2.8428770242856076e-12 8.1836123030342964e+00 
Al Cu Nb 
4 4 4 
Cartesian
   2.2784679178    4.3689425973    4.0064592588
   2.2784679178    4.3689425973    0.0853493478
   0.0075340365    1.5385479997    6.1377092273
  -1.2845153658    3.6808841747    6.1377092273
   1.1444713940    3.6850258770    6.1377092273
   2.3337983833    2.8682364933    2.0459030758
   3.6257868619    0.7260013354    2.0459030758
   1.2132947900    0.7317417437    2.0459030758
   2.4913157250    1.5025200204    4.6147389777
  -0.1812348240    2.8854884624    3.5689960795
  -0.1812348240    2.8854884624    0.5228108903
   2.4913157249    1.5025200204    7.6606794769
