Al1 
1.0
2.8394070959637641e+00 0.0000000000000000e+00 0.0000000000000000e+00 
1.4197035462120826e+00 2.4589986767937391e+00 0.0000000000000000e+00 
1.4197035497742641e+00 8.1966622581791226e-01 2.3183661857176285e+00 
Al 
1 
Cartesian
   0.0000000000    0.0000000000    0.0000000000
