Zr3 Al3 Ni3
1.0
   6.8740618600000003    0.0000000000000000    0.0000000000000000
  -3.4370304200000001    5.9531122500000002    0.0000000000000000
  -0.0000000000000000   -0.0000000000000000    3.4819456700000000
Zr Al Ni
3 3 3
direct
   0.5901366200000000    0.0000000000000000    0.5000000000000000 Zr
   0.4098633800000000    0.4098633800000000    0.5000000000000000 Zr
   0.0000000000000000    0.5901366200000000    0.5000000000000000 Zr
   0.2474952500000000   -0.0000000000000000   -0.0000000000000000 Al
   0.7525047500000001    0.7525047500000001    0.0000000000000000 Al
  -0.0000000000000000    0.2474952500000000   -0.0000000000000000 Al
  -0.0000000000000000    0.0000000000000000    0.5000000000000000 Ni
   0.3333330000000000    0.6666670000000000    0.0000000000000000 Ni
   0.6666670000000000    0.3333330000000000   -0.0000000000000000 Ni
