Cu3 Zr6 Nb3 Ta3 W9 
1.0
9.7519289131872124e+00 0.0000000000000000e+00 0.0000000000000000e+00 
6.0207438567118021e-06 6.6611673052656748e+00 0.0000000000000000e+00 
2.4036775123396446e-05 -2.3150789488297789e-02 6.4457099054458631e+00 
Cu Zr Nb Ta W 
3 6 3 3 9 
Cartesian
   1.6253348027    4.8017672666    1.5342723288
   4.8759745232    4.8017672666    1.5342723288
   8.1266142436    4.8017672666    1.5342723288
   3.2506514228    0.0300261442    3.1281159085
   1.6253477033    4.9643967243    4.9513042924
   0.0000117595    0.0300261442    3.1281159085
   4.8759874237    4.9643967243    4.9513042924
   6.5013008952    0.0300262108    3.1281159085
   8.1266271442    4.9643967243    4.9513042924
   3.2506401446    0.1225596049    0.0839805098
   0.0000005008    0.1225596049    0.0839805098
   6.5012896170    0.1225596049    0.0839805098
   3.2506546684    3.2589433335    3.2157646718
   9.7519438612    3.2589433335    3.2157646718
   6.5013041408    3.2589433335    3.2157646718
   3.2506426574    3.2215494407    0.0067403433
   1.6253444593    1.7119283005    4.8697789535
   1.6253321403    1.8028767434    1.5471701943
   4.8759841797    1.7119283005    4.8697789535
   4.8759718607    1.8028767434    1.5471701943
   9.7519318502    3.2215494407    0.0067403433
   6.5012921297    3.2215494402    0.0067404722
   8.1266239001    1.7119283005    4.8697789535
   8.1266115811    1.8028767434    1.5471701943
