Ta20 Al10                               
   1.00000000000000     
     0.0000000000000000    0.0000000000000000    5.2202062159036515
     9.9440801086946813    0.0000000000000000    0.0000000000000000
    -0.0000000000000000    9.9440801086946813    0.0000000000000000
   Ta   Al
    20    10
Direct
  0.5000000000000000  0.1020608166832332  0.8979391833167668
  0.5000000000000000  0.8979391833167668  0.1020608166832332
 -0.0000000000000000  0.3979391833167668  0.3979391833167668
 -0.0000000000000000  0.6020608166832332  0.6020608166832332
  0.5000000000000000  0.3707676836131674  0.9642132872902861
  0.5000000000000000  0.6292323163868325  0.0357867127097211
 -0.0000000000000000  0.1292323163868327  0.4642132872902788
 -0.0000000000000000  0.8707676836131675  0.5357867127097210
  0.5000000000000000  0.9642132872902861  0.3707676836131674
  0.5000000000000000  0.0357867127097211  0.6292323163868325
 -0.0000000000000000  0.4642132872902788  0.1292323163868327
 -0.0000000000000000  0.5357867127097210  0.8707676836131675
  0.2483236473957510  0.3185276051211562  0.6814723948788440
  0.2483236473957510  0.6814723948788440  0.3185276051211562
  0.7483236473957511  0.1814723948788438  0.1814723948788438
  0.7483236473957511  0.8185276051211560  0.8185276051211560
  0.7516763526042489  0.6814723948788440  0.3185276051211562
  0.7516763526042489  0.3185276051211562  0.6814723948788440
  0.2516763526042491  0.8185276051211560  0.8185276051211560
  0.2516763526042491  0.1814723948788438  0.1814723948788438
  0.5000000000000000  0.5000000000000000  0.5000000000000000
 -0.0000000000000000  0.0000000000000000 -0.0000000000000000
  0.5000000000000000  0.4335672942000988  0.2373565814027174
  0.5000000000000000  0.5664327057999013  0.7626434185972828
 -0.0000000000000000  0.0664327057999013  0.7373565814027172
 -0.0000000000000000  0.9335672942000987  0.2626434185972826
  0.5000000000000000  0.2373565814027174  0.4335672942000988
  0.5000000000000000  0.7626434185972828  0.5664327057999013
 -0.0000000000000000  0.7373565814027172  0.0664327057999013
 -0.0000000000000000  0.2626434185972826  0.9335672942000987
 
  0.00000000E+00  0.00000000E+00  0.00000000E+00
  0.00000000E+00  0.00000000E+00  0.00000000E+00
  0.00000000E+00  0.00000000E+00  0.00000000E+00
  0.00000000E+00  0.00000000E+00  0.00000000E+00
  0.00000000E+00  0.00000000E+00  0.00000000E+00
  0.00000000E+00  0.00000000E+00  0.00000000E+00
  0.00000000E+00  0.00000000E+00  0.00000000E+00
  0.00000000E+00  0.00000000E+00  0.00000000E+00
  0.00000000E+00  0.00000000E+00  0.00000000E+00
  0.00000000E+00  0.00000000E+00  0.00000000E+00
  0.00000000E+00  0.00000000E+00  0.00000000E+00
  0.00000000E+00  0.00000000E+00  0.00000000E+00
  0.00000000E+00  0.00000000E+00  0.00000000E+00
  0.00000000E+00  0.00000000E+00  0.00000000E+00
  0.00000000E+00  0.00000000E+00  0.00000000E+00
  0.00000000E+00  0.00000000E+00  0.00000000E+00
  0.00000000E+00  0.00000000E+00  0.00000000E+00
  0.00000000E+00  0.00000000E+00  0.00000000E+00
  0.00000000E+00  0.00000000E+00  0.00000000E+00
  0.00000000E+00  0.00000000E+00  0.00000000E+00
  0.00000000E+00  0.00000000E+00  0.00000000E+00
  0.00000000E+00  0.00000000E+00  0.00000000E+00
  0.00000000E+00  0.00000000E+00  0.00000000E+00
  0.00000000E+00  0.00000000E+00  0.00000000E+00
  0.00000000E+00  0.00000000E+00  0.00000000E+00
  0.00000000E+00  0.00000000E+00  0.00000000E+00
  0.00000000E+00  0.00000000E+00  0.00000000E+00
  0.00000000E+00  0.00000000E+00  0.00000000E+00
  0.00000000E+00  0.00000000E+00  0.00000000E+00
  0.00000000E+00  0.00000000E+00  0.00000000E+00
