POSCAR file written by OVITO Basic 3.9.4
1
7.0400347 0.0 0.0
-0.0108574069 7.4929442421 0.0
-0.0744261776 0.1176738465 14.9537
Al Zr W Ta Ni 
18 4 17 18 3 
Cartesian
-0.0995871 7.3521 3.56268
1.79579 1.89782 3.56945
5.28548 1.89964 3.5543
1.59932 7.30516 1.77304
1.89288 0.131171 5.33727
1.69525 3.67966 1.78591
5.10871 7.31048 1.78924
5.19382 3.67969 1.77968
5.29564 3.74909 5.33904
0.00684751 1.84689 1.77487
7.07741 1.94777 5.35334
3.50765 1.84728 1.78504
3.59149 1.94502 5.35332
3.39814 5.48651 1.78027
3.48495 5.58447 5.34479
6.8798366188 0.0361000219 14.8853876
3.4223133356 3.6857195028 14.5703976
3.5853951929 3.2358164693 11.3908676
5.2085305495 1.5833168179 11.2023776
1.6778782716 0.4994737308 12.9982276
5.2150668778 6.6356572048 13.0937676
5.5628629484 3.6337823006 12.7528576
-0.00873923 7.42977 7.1151
7.08226 3.80879 7.11899
3.6748 0.175455 7.12196
3.59188 0.0871788 3.56551
3.49902 3.71811 3.55887
1.88246 1.99188 7.11241
1.69047 5.52703 3.55376
5.3827 1.99168 7.12216
5.29056 5.61217 7.11884
5.19847 5.5336 3.56141
5.39125 0.126135 5.34402
-0.0926744 5.49517 1.7741
4.9906311828 5.6252425431 11.0022276
1.8418086394 3.3741058279 12.8466976
5.1405657892 3.6881995162 9.6218476
0.0033477004 1.7511183352 13.1590876
3.7522533882 1.689470927 13.1868576
3.58287 3.79946 7.11942
6.7190564383 0.1555225898 11.1930276
-0.0155818496 3.8073450797 11.1777976
3.543894044 7.1495613146 14.8860520422
3.4174567767 -0.0055165095 11.0878076
2.1573799589 1.7244486534 10.8613176
1.6695249789 5.275281702 14.8868656422
1.9199741746 5.3334403593 11.1085576
5.2427786719 1.9172315358 14.8037976
1.7425142599 7.1077563576 9.4151976
1.635210314 3.4165522099 9.6734676
5.1589999133 7.0319633349 8.8641876
6.6405459044 1.9381590329 9.5108776
0.0212629277 5.6939675278 9.3393476
0.1608570813 5.7380831496 12.6103776
3.684102142 1.9927956342 9.0787176
3.3093588691 5.4913504388 9.2268176
3.1827722885 5.5754324292 13.1027776
6.98879 3.71717 3.56583
1.78291 3.77162 5.35007
-0.00574219 5.58034 5.3456
