Al4 Ni4 Nb4 
1.0
4.9035089666710006e+00 0.0000000000000000e+00 0.0000000000000000e+00 
2.2618201551712143e+00 4.3506976189482272e+00 0.0000000000000000e+00 
9.9645169067955983e-15 1.2305838243739916e-15 7.9709475806614538e+00 
Al Ni Nb 
4 4 4 
Cartesian
   7.1089451470    4.3164619794    3.8864427376
   7.1089451470    4.3164619794    0.0990350382
   4.9138545933    1.5358441172    5.9782106855
   3.6292885000    3.6514447962    5.9782106855
   6.0552620036    3.6766788424    5.9782106855
   2.2860079970    2.8432592065    1.9927368952
   3.5771752907    0.7167948355    1.9927368952
   1.1903139009    0.7227465899    1.9927368952
   2.4265387071    1.4733637487    4.4316714940
   4.7172156087    2.8642339198    3.3321271009
   4.7172156087    2.8642339198    0.6533498778
   2.4265387071    1.4733637487    7.5247498770
