Ta20 Al10                               
   1.00000000000000     
     9.9166934975637329   -0.0000000000000000    0.0000000000000000
    -0.0000000000000000    9.9166934975637329    0.0000000000000000
     0.0000000000000000    0.0000000000000000    5.4064874459484695
   Ta   Al
    20    10
Direct
  0.3115164323826714  0.3115164323826714  0.2482516279682385
  0.9375598743285225  0.7373411684546025  0.5000000000000000
  0.2626588315453976  0.0624401256714776  0.5000000000000000
  0.4375598743285153  0.7626588315453975  0.0000000000000000
  0.8115164323826715  0.1884835676173286  0.7482516279682386
  0.4027705378389070  0.5972294621610932  0.5000000000000000
  0.5624401256714775  0.2373411684546024  0.0000000000000000
  0.8115164323826715  0.1884835676173286  0.2517483720317615
  0.1884835676173286  0.8115164323826715  0.7482516279682386
  0.3115164323826714  0.3115164323826714  0.7517483720317614
  0.9027705378389068  0.9027705378389068  0.0000000000000000
  0.0624401256714776  0.2626588315453976  0.5000000000000000
  0.2373411684546024  0.5624401256714775  0.0000000000000000
  0.6884835676173285  0.6884835676173285  0.7517483720317614
  0.0972294621610931  0.0972294621610931  0.0000000000000000
  0.5972294621610932  0.4027705378389070  0.5000000000000000
  0.7626588315453975  0.4375598743285153  0.0000000000000000
  0.1884835676173286  0.8115164323826715  0.2517483720317615
  0.6884835676173285  0.6884835676173285  0.2482516279682385
  0.7373411684546025  0.9375598743285225  0.5000000000000000
  0.3638768443598812  0.0346295623024820  0.0000000000000000
  0.9653704376975180  0.6361231556401189  0.0000000000000000
  0.1361231556401188  0.5346295623024820  0.5000000000000000
  0.5346295623024820  0.1361231556401188  0.5000000000000000
  0.4653704376975181  0.8638768443598811  0.5000000000000000
  0.0346295623024820  0.3638768443598812  0.0000000000000000
  0.6361231556401189  0.9653704376975180  0.0000000000000000
  0.8638768443598811  0.4653704376975181  0.5000000000000000
  0.5000000000000000  0.5000000000000000  0.0000000000000000
 -0.0000000000000000 -0.0000000000000000  0.5000000000000000
 
  0.00000000E+00  0.00000000E+00  0.00000000E+00
  0.00000000E+00  0.00000000E+00  0.00000000E+00
  0.00000000E+00  0.00000000E+00  0.00000000E+00
  0.00000000E+00  0.00000000E+00  0.00000000E+00
  0.00000000E+00  0.00000000E+00  0.00000000E+00
  0.00000000E+00  0.00000000E+00  0.00000000E+00
  0.00000000E+00  0.00000000E+00  0.00000000E+00
  0.00000000E+00  0.00000000E+00  0.00000000E+00
  0.00000000E+00  0.00000000E+00  0.00000000E+00
  0.00000000E+00  0.00000000E+00  0.00000000E+00
  0.00000000E+00  0.00000000E+00  0.00000000E+00
  0.00000000E+00  0.00000000E+00  0.00000000E+00
  0.00000000E+00  0.00000000E+00  0.00000000E+00
  0.00000000E+00  0.00000000E+00  0.00000000E+00
  0.00000000E+00  0.00000000E+00  0.00000000E+00
  0.00000000E+00  0.00000000E+00  0.00000000E+00
  0.00000000E+00  0.00000000E+00  0.00000000E+00
  0.00000000E+00  0.00000000E+00  0.00000000E+00
  0.00000000E+00  0.00000000E+00  0.00000000E+00
  0.00000000E+00  0.00000000E+00  0.00000000E+00
  0.00000000E+00  0.00000000E+00  0.00000000E+00
  0.00000000E+00  0.00000000E+00  0.00000000E+00
  0.00000000E+00  0.00000000E+00  0.00000000E+00
  0.00000000E+00  0.00000000E+00  0.00000000E+00
  0.00000000E+00  0.00000000E+00  0.00000000E+00
  0.00000000E+00  0.00000000E+00  0.00000000E+00
  0.00000000E+00  0.00000000E+00  0.00000000E+00
  0.00000000E+00  0.00000000E+00  0.00000000E+00
  0.00000000E+00  0.00000000E+00  0.00000000E+00
  0.00000000E+00  0.00000000E+00  0.00000000E+00
