fcc_Al12_Cu0_Nb12_Ni0_Ta4_W4_Zr0        
   1.00000000000000     
     8.1542213073133656    0.0000000000000000   -0.0000000000000000
    -0.0000000000000000    8.1878117536502728   -0.0000000000000000
     0.0000000000000000   -0.0000000000000000    8.1878117536502728
   Al   Nb   Ta   W 
    12    12     4     4
Direct
 -0.0026586778484630 -0.0033688151208215  0.4966311848791785
  0.2526586778484629  0.2533688151208215  0.4966311848791785
 -0.0026586778484630  0.2533688151208215  0.7533688151208213
  0.2526586778484629 -0.0033688151208215  0.7533688151208213
  0.4977983034571857 -0.0034650816506091 -0.0026025741244867
  0.7522016965428143  0.2534650816506092 -0.0026025741244867
  0.4977983034571857  0.2534650816506092  0.2526025741244867
  0.7522016965428143 -0.0034650816506091  0.2526025741244867
  0.4977983034571857  0.4973974258755133  0.4965349183493908
  0.7522016965428143  0.7526025741244867  0.4965349183493908
  0.4977983034571857  0.7526025741244867  0.7534650816506092
  0.7522016965428143  0.4973974258755133  0.7534650816506092
 -0.0052166140559309  0.4945796340424001  0.5106080621494450
  0.2552166140559309  0.7554203659575998  0.5106080621494450
 -0.0052166140559309  0.7554203659575998  0.7393919378505550
  0.2552166140559309  0.4945796340424001  0.7393919378505550
 -0.0052166140559309  0.0106080621494449 -0.0054203659575999
  0.2552166140559309  0.2393919378505551 -0.0054203659575999
 -0.0052166140559309  0.2393919378505551  0.2554203659575999
  0.2552166140559309  0.0106080621494449  0.2554203659575999
  0.5012558710488592  0.0011563498548120  0.5011563498548118
  0.7487441289511408  0.2488436501451880  0.5011563498548118
  0.5012558710488592  0.2488436501451880  0.7488436501451882
  0.7487441289511408  0.0011563498548120  0.7488436501451882
  0.5083436010215154  0.4954325782480720 -0.0045674217519280
  0.7416563989784846  0.7545674217519278 -0.0045674217519280
  0.5083436010215154  0.7545674217519278  0.2545674217519280
  0.7416563989784846  0.4954325782480720  0.2545674217519280
 -0.0035531818855850  0.4991481926477941 -0.0008518073522060
  0.2535531818855851  0.7508518073522060 -0.0008518073522060
 -0.0035531818855850  0.7508518073522060  0.2508518073522059
  0.2535531818855851  0.4991481926477941  0.2508518073522059
 
  0.00000000E+00  0.00000000E+00  0.00000000E+00
  0.00000000E+00  0.00000000E+00  0.00000000E+00
  0.00000000E+00  0.00000000E+00  0.00000000E+00
  0.00000000E+00  0.00000000E+00  0.00000000E+00
  0.00000000E+00  0.00000000E+00  0.00000000E+00
  0.00000000E+00  0.00000000E+00  0.00000000E+00
  0.00000000E+00  0.00000000E+00  0.00000000E+00
  0.00000000E+00  0.00000000E+00  0.00000000E+00
  0.00000000E+00  0.00000000E+00  0.00000000E+00
  0.00000000E+00  0.00000000E+00  0.00000000E+00
  0.00000000E+00  0.00000000E+00  0.00000000E+00
  0.00000000E+00  0.00000000E+00  0.00000000E+00
  0.00000000E+00  0.00000000E+00  0.00000000E+00
  0.00000000E+00  0.00000000E+00  0.00000000E+00
  0.00000000E+00  0.00000000E+00  0.00000000E+00
  0.00000000E+00  0.00000000E+00  0.00000000E+00
  0.00000000E+00  0.00000000E+00  0.00000000E+00
  0.00000000E+00  0.00000000E+00  0.00000000E+00
  0.00000000E+00  0.00000000E+00  0.00000000E+00
  0.00000000E+00  0.00000000E+00  0.00000000E+00
  0.00000000E+00  0.00000000E+00  0.00000000E+00
  0.00000000E+00  0.00000000E+00  0.00000000E+00
  0.00000000E+00  0.00000000E+00  0.00000000E+00
  0.00000000E+00  0.00000000E+00  0.00000000E+00
  0.00000000E+00  0.00000000E+00  0.00000000E+00
  0.00000000E+00  0.00000000E+00  0.00000000E+00
  0.00000000E+00  0.00000000E+00  0.00000000E+00
  0.00000000E+00  0.00000000E+00  0.00000000E+00
  0.00000000E+00  0.00000000E+00  0.00000000E+00
  0.00000000E+00  0.00000000E+00  0.00000000E+00
  0.00000000E+00  0.00000000E+00  0.00000000E+00
  0.00000000E+00  0.00000000E+00  0.00000000E+00
