Cu3 Zr6 Ta6 W9 
1.0
9.7667420702197010e+00 0.0000000000000000e+00 0.0000000000000000e+00 
4.5293646242656457e-04 6.4238007254387348e+00 0.0000000000000000e+00 
-2.2473886623421705e-04 5.2203604046753740e-02 6.6734315965161466e+00 
Cu Zr Ta W 
3 6 6 9 
Cartesian
   3.2556967331    3.2261912152    3.1604704698
   9.7668613688    3.2261912152    3.1604704698
   6.5112839343    3.2261912152    3.1604704698
   3.2554664263    0.0293784198    3.3036956587
   1.6277449510    1.7583595847    5.0434993165
   4.8833223855    1.7583595847    5.0434993165
   9.7666310620    0.0293785354    3.3036956587
   6.5110536276    0.0293785739    3.3036956587
   8.1388998200    1.7583595847    5.0434993165
   1.6280764359    4.7936552381    1.6115669962
   1.6279562266    4.8023697737    5.1415120064
   4.8836538704    4.7936552381    1.6115669962
   4.8835336611    4.8023697737    5.1415120064
   8.1392313049    4.7936552381    1.6115669962
   8.1391110956    4.8023697737    5.1415120064
   3.2557984296    3.2062378746    0.1482356014
   3.2555760415    0.0102527590    0.0618171981
   1.6278534890    1.6015685921    1.5495040824
   4.8834309235    1.6015685921    1.5495040824
   0.0002210660    3.2062378746    0.1482356014
   9.7667406772    0.0102527585    0.0618171314
   6.5113856309    3.2062378746    0.1482356014
   6.5111632428    0.0102528870    0.0618171314
   8.1390083580    1.6015685921    1.5495040824
