Converted from final.data
1.0
15.0648271209644626 0.0000000000000000 0.0000000000000000
0.1743349222298968 30.8523725797109378 0.0000000000000000
0.0807447072677736 -0.4671957186438522 15.4474526257161564
Cu W Ni Zr Nb
8 23 10 16 2
Direct
0.1137671303048621 0.8148814297962730 -0.0032550990760577
0.4103059832827818 0.0834676756069299 0.1703460956654095
0.0729922166221028 0.0223955322659628 0.1691841839490981
0.4573422845447192 0.6874589239560798 0.3785674775250134
0.2468809142601274 0.0079724518880849 0.2439906191902014
0.1930063753533695 0.0578618657354710 0.3121972803129813
0.2361614187671561 0.1385937607026694 0.3463043010175703
0.3450944005177031 0.9972563891302367 0.2139762917601547
0.4372858032743568 0.7006036752016646 0.0060626147718493
0.4248676578711648 0.9290249691845257 0.2683258100347098
0.4450926966587798 0.6507630314803045 0.1509497740405651
0.2867578966072964 0.8638334012600614 0.3177652805477413
-0.0395894929681378 0.1558166082576233 0.3549168040878303
0.0737966933655483 0.9851948445017050 0.4524971758018412
0.2845603934021786 0.0289557799692437 0.1042381140203398
0.1207077920769321 0.1247421431869276 0.1163896786393148
0.0873896516124930 0.1180178187717465 0.2753530084401655
0.7670963842083970 0.9108619222012475 0.3042964615701350
0.0442768687741459 0.0190735923614261 0.3577502965653746
0.4894565935477228 0.9863858705426388 0.4015794031552558
0.9923528882500782 0.1220600080096724 0.1555643104584134
0.0693592636801757 0.9755633294187018 0.1551718630035722
0.1309707189198108 -0.0397021241066700 0.2892438986539757
0.2409381235411234 0.0909933275377682 0.1934406643474699
-0.0072825793067350 0.7671256550630298 0.2138722428006538
0.2708005515866873 0.7092166555248387 0.3422632186189851
0.4370018151280609 0.1162060309384418 0.9370883505729247
0.1254496476632241 0.8395392010412127 0.3112942888725791
0.9338003155823724 0.0938043304693471 0.3047338406916054
0.9007292841717627 0.8946754667480781 0.3987675710538298
0.4209296677901423 0.8233760533462242 0.4593554900371821
0.0312878681765077 0.6449822347276092 0.3873888975957863
0.2707047454143421 0.1040925255877317 0.9082479920451608
0.1148334316483538 0.7241485034297284 0.9672115285481798
0.9988643700600534 0.8591168342223729 -0.0032912736437686
0.3695405959877571 -0.0184103119004248 0.4834550837978395
0.3482218531989814 0.9238242504424199 0.1044007948587805
0.5315383460873879 0.7404290277225298 0.6906463227774275
0.2043876992143241 0.8357528409759194 0.9176435505442083
0.0476377380654043 0.7296637634266196 0.7705545781782797
0.1506387736606177 0.5369389300094635 0.2219756198993989
0.2555283854103043 0.7654607911860030 -0.0308262958279629
0.2246952754298937 0.8077277117897836 0.1632341778771044
0.0102840379304287 0.9226592269990144 0.3091535440140937
0.2187253207450552 0.8083277191645628 0.4550009157910187
0.3660435421107591 0.0321914258355245 0.9974999841492602
0.9970399613888506 -0.0146954855613437 0.2130081368327954
0.0583633118993049 0.8893598221983601 0.9336788311154698
0.1048049745991487 0.7290193273830053 0.0919033740097226
0.3689768152800085 0.7883171768274113 0.2925722952743697
0.4361552049590233 0.7850153452220974 0.0813385341921484
0.5986287639691161 -0.0362657804203366 -0.0035314190598798
0.5762312181950116 0.2923720687984914 0.9016622529724339
0.5896061877737190 0.0613223421924453 0.0506275352900573
0.7831943679454078 0.0631090018724797 0.1574070371640897
0.8548467080995130 0.0423539821099429 0.3809843204117735
0.3893053824585826 0.0292147211376802 0.3473721121882931
0.2913603139195490 0.9769789688100914 0.3705440323107864
0.5943661044634582 0.0353799810822819 0.9189241841729787
