Zr2 
1.0
3.2192658150031290e+00 0.0000000000000000e+00 0.0000000000000000e+00 
-1.6096340353124352e+00 2.7879671630188945e+00 0.0000000000000000e+00 
-4.8478734811933286e-15 1.8205028254711186e-15 5.2237880635644309e+00 
Zr 
2 
Cartesian
   0.0000008578    1.8586457047    1.3059470159
   1.6096309219    0.9293214584    3.9178410477
