bcc_Al0_Cu6_Nb0_Ni3_Ta3_W3_Zr9          
   1.00000000000000     
    10.8975854763932070    0.0000000000000000    0.0000000000000000
     0.0000000000000000    6.0626955186392077   -0.0917744515920648
     0.0000000000000000   -0.0864738887772647    6.1969067538782365
   Cu   Ni   Ta   W    Zr
     6     3     3     3     9
Direct
 -0.0000000000000000  0.5077171700985940  0.0248884573175778
  0.3333333333333357  0.5077171700985940  0.0248884573175778
  0.6666666666666643  0.5077171700985940  0.0248884573175778
  0.1666666666666643  0.7301338534800405  0.2468502963768658
  0.5000000000000000  0.7301338534800405  0.2468502963768658
  0.8333333333333357  0.7301338534800405  0.2468502963768658
  0.1666666666666643  0.2692836076003865  0.2549275196282322
  0.5000000000000000  0.2692836076003865  0.2549275196282322
  0.8333333333333357  0.2692836076003865  0.2549275196282322
 -0.0000000000000000  0.4825410380191661  0.4517549575766589
  0.3333333333333357  0.4825410380191661  0.4517549575766589
  0.6666666666666643  0.4825410380191661  0.4517549575766589
 -0.0000000000000000 -0.0027778935241796  0.4851531912382084
  0.3333333333333357 -0.0027778935241796  0.4851531912382084
  0.6666666666666643 -0.0027778935241796  0.4851531912382084
  0.1666666666666643  0.2623565793776427  0.7559289754101892
  0.5000000000000000  0.2623565793776427  0.7559289754101892
  0.8333333333333357  0.2623565793776427  0.7559289754101892
 -0.0000000000000000  0.0105897150508082  0.0382209753065902
  0.3333333333333357  0.0105897150508082  0.0382209753065902
  0.6666666666666643  0.0105897150508082  0.0382209753065902
  0.1666666666666643  0.7401559298975420  0.7422756271456782
  0.5000000000000000  0.7401559298975420  0.7422756271456782
  0.8333333333333357  0.7401559298975420  0.7422756271456782
 
  0.00000000E+00  0.00000000E+00  0.00000000E+00
  0.00000000E+00  0.00000000E+00  0.00000000E+00
  0.00000000E+00  0.00000000E+00  0.00000000E+00
  0.00000000E+00  0.00000000E+00  0.00000000E+00
  0.00000000E+00  0.00000000E+00  0.00000000E+00
  0.00000000E+00  0.00000000E+00  0.00000000E+00
  0.00000000E+00  0.00000000E+00  0.00000000E+00
  0.00000000E+00  0.00000000E+00  0.00000000E+00
  0.00000000E+00  0.00000000E+00  0.00000000E+00
  0.00000000E+00  0.00000000E+00  0.00000000E+00
  0.00000000E+00  0.00000000E+00  0.00000000E+00
  0.00000000E+00  0.00000000E+00  0.00000000E+00
  0.00000000E+00  0.00000000E+00  0.00000000E+00
  0.00000000E+00  0.00000000E+00  0.00000000E+00
  0.00000000E+00  0.00000000E+00  0.00000000E+00
  0.00000000E+00  0.00000000E+00  0.00000000E+00
  0.00000000E+00  0.00000000E+00  0.00000000E+00
  0.00000000E+00  0.00000000E+00  0.00000000E+00
  0.00000000E+00  0.00000000E+00  0.00000000E+00
  0.00000000E+00  0.00000000E+00  0.00000000E+00
  0.00000000E+00  0.00000000E+00  0.00000000E+00
  0.00000000E+00  0.00000000E+00  0.00000000E+00
  0.00000000E+00  0.00000000E+00  0.00000000E+00
  0.00000000E+00  0.00000000E+00  0.00000000E+00
