fcc_Al12_Cu0_Nb8_Ni0_Ta12_W0_Zr0        
   1.00000000000000     
     9.1098997817429819    0.0000000000000000    0.0000000000000000
     0.0000000000000000    6.7924567696594149    0.0000000000000000
     0.0000000000000000    0.0000000000000000    9.0633162925045418
   Al   Nb   Ta
    12     8    12
Direct
  0.5053854026860981  0.4848765521481228  0.0025195414986775
  0.7446145973139020  0.7651234478518770  0.0025195414986775
  0.5053854026860981  0.7651234478518770  0.2474804585013225
  0.7446145973139020  0.4848765521481228  0.2474804585013225
  0.0047914477705752  0.4987338606985635  0.5064623377258302
  0.2452085522294248  0.7512661393014363  0.5064623377258302
  0.0047914477705752  0.7512661393014363  0.7435376622741700
  0.2452085522294248  0.4987338606985635  0.7435376622741700
 -0.0046577886472796  0.0018292319854648  0.4924114591635186
  0.2546577886472797  0.2481707680145352  0.4924114591635186
 -0.0046577886472796  0.2481707680145352  0.7575885408364812
  0.2546577886472796  0.0018292319854648  0.7575885408364812
 -0.0024242955327899  0.5069016798268712 -0.0024470271937764
  0.2524242955327899  0.7430983201731288 -0.0024470271937764
 -0.0024242955327899  0.7430983201731288  0.2524470271937764
  0.2524242955327899  0.5069016798268712  0.2524470271937764
  0.4925296555149564 -0.0062251266668641  0.5076979865038069
  0.7574703444850439  0.2562251266668641  0.5076979865038068
  0.4925296555149564  0.2562251266668641  0.7423020134961931
  0.7574703444850440 -0.0062251266668641  0.7423020134961931
  0.4994981591951983  0.5016875229521814  0.5001752121080419
  0.7505018408048018  0.7483124770478186  0.5001752121080419
  0.4994981591951983  0.7483124770478186  0.7498247878919583
  0.7505018408048018  0.5016875229521814  0.7498247878919583
  0.0094524951096735 -0.0104856143293404 -0.0024908624150903
  0.2405475048903265  0.2604856143293404 -0.0024908624150903
  0.0094524951096735  0.2604856143293404  0.2524908624150902
  0.2405475048903265 -0.0104856143293404  0.2524908624150902
  0.4937927597633983  0.0165694444239632 -0.0057038571833089
  0.7562072402366018  0.2334305555760367 -0.0057038571833089
  0.4937927597633983  0.2334305555760368  0.2557038571833090
  0.7562072402366018  0.0165694444239632  0.2557038571833090
 
  0.00000000E+00  0.00000000E+00  0.00000000E+00
  0.00000000E+00  0.00000000E+00  0.00000000E+00
  0.00000000E+00  0.00000000E+00  0.00000000E+00
  0.00000000E+00  0.00000000E+00  0.00000000E+00
  0.00000000E+00  0.00000000E+00  0.00000000E+00
  0.00000000E+00  0.00000000E+00  0.00000000E+00
  0.00000000E+00  0.00000000E+00  0.00000000E+00
  0.00000000E+00  0.00000000E+00  0.00000000E+00
  0.00000000E+00  0.00000000E+00  0.00000000E+00
  0.00000000E+00  0.00000000E+00  0.00000000E+00
  0.00000000E+00  0.00000000E+00  0.00000000E+00
  0.00000000E+00  0.00000000E+00  0.00000000E+00
  0.00000000E+00  0.00000000E+00  0.00000000E+00
  0.00000000E+00  0.00000000E+00  0.00000000E+00
  0.00000000E+00  0.00000000E+00  0.00000000E+00
  0.00000000E+00  0.00000000E+00  0.00000000E+00
  0.00000000E+00  0.00000000E+00  0.00000000E+00
  0.00000000E+00  0.00000000E+00  0.00000000E+00
  0.00000000E+00  0.00000000E+00  0.00000000E+00
  0.00000000E+00  0.00000000E+00  0.00000000E+00
  0.00000000E+00  0.00000000E+00  0.00000000E+00
  0.00000000E+00  0.00000000E+00  0.00000000E+00
  0.00000000E+00  0.00000000E+00  0.00000000E+00
  0.00000000E+00  0.00000000E+00  0.00000000E+00
  0.00000000E+00  0.00000000E+00  0.00000000E+00
  0.00000000E+00  0.00000000E+00  0.00000000E+00
  0.00000000E+00  0.00000000E+00  0.00000000E+00
  0.00000000E+00  0.00000000E+00  0.00000000E+00
  0.00000000E+00  0.00000000E+00  0.00000000E+00
  0.00000000E+00  0.00000000E+00  0.00000000E+00
  0.00000000E+00  0.00000000E+00  0.00000000E+00
  0.00000000E+00  0.00000000E+00  0.00000000E+00
