Al3 Cu1 
1.0
2.8078924520739430e+00 0.0000000000000000e+00 0.0000000000000000e+00 
-3.9296253614969320e-09 2.8078924868953008e+00 0.0000000000000000e+00 
-2.4154776906321718e-09 -3.9526584726693362e-10 7.6377908433046784e+00 
Al Cu 
3 1 
Cartesian
   0.0000000090    2.8078924867    3.8188954217
   1.4039462222    1.4039462431    5.9053718486
   1.4039462235    1.4039462434    1.7324189947
   2.8078924481    2.8078924869    0.0000000171
