Cu5 Zr1 
1.0
4.8692155130083679e+00 0.0000000000000000e+00 0.0000000000000000e+00 
2.4346152115250379e+00 4.2168677155905678e+00 0.0000000000000000e+00 
2.4346075943621130e+00 1.4056196075470846e+00 3.9756940932302052e+00 
Cu Zr 
5 1 
Cartesian
   2.4346095797    1.4056218308    0.9939235233
   3.6593466101    3.5097646191    2.4817753537
   4.8692163607    1.4142006416    2.4817753537
   6.0790935209    3.5097646191    2.4817753537
   4.8692201461    2.8112447664    0.5060621254
   0.0000009965    0.0000005756    0.0000004744
