Ni3 Nb6 Ta9 W6 
1.0
9.8618852528983165e+00 0.0000000000000000e+00 0.0000000000000000e+00 
2.6323011396638152e-05 6.4165403881268883e+00 0.0000000000000000e+00 
-1.3680093530162188e-05 4.3147053293540821e-02 6.3168089138173551e+00 
Ni Nb Ta W 
3 6 9 6 
Cartesian
   3.2872985321    3.3352620802    3.1670079506
   0.0000068093    3.3352620802    3.1670079506
   6.5746001909    3.3352620802    3.1670079506
   3.2873051120    3.2531530212    0.0139631166
   1.6436540157    1.6495683887    1.6323392250
   4.9309458127    1.6495683887    1.6323392250
   0.0000134666    3.2531530221    0.0139632429
   6.5746067709    3.2531466051    0.0139631798
   8.2182376097    1.6495683887    1.6323392250
   3.2873108139    6.3207198132    3.1513169973
   1.6436475409    1.6916662278    4.6626640644
   3.2873043635    6.4381549247    6.3113764582
   4.9309393379    1.6916662278    4.6626640644
   9.8618978194    6.4381549247    6.3113764582
   0.0000193642    6.3207198132    3.1513169973
   6.5746124728    6.3207198132    3.1513169973
   8.2182311349    1.6916662278    4.6626640644
   6.5746060224    6.4381549247    6.3113764582
   1.6436601211    4.7957487042    4.7327743265
   1.6436669013    4.7710298040    1.5957901687
   4.9309519182    4.7957487042    4.7327743265
   4.9309586983    4.7710298040    1.5957901687
   8.2182437152    4.7957487042    4.7327743265
   8.2182504953    4.7710298040    1.5957901687
