Ni6 Zr2 
1.0
5.3474730174555400e+00 0.0000000000000000e+00 0.0000000000000000e+00 
-2.6737375981296139e+00 4.6310493790509453e+00 0.0000000000000000e+00 
0.0000000000000000e+00 0.0000000000000000e+00 4.3138079988837896e+00 
Ni Zr 
6 2 
Cartesian
  -0.0000003383    1.4381538605    3.2353559992
  -1.4282601622    3.9119724488    3.2353559992
   1.2454770976    0.7190769302    1.0784519997
   4.1019955815    0.7190769302    1.0784519997
   2.6737357576    3.1928955186    1.0784519997
   1.4282583217    3.9119724488    3.2353559992
  -0.0000034000    3.0873677964    1.0784519997
   2.6737388193    1.5436815827    3.2353559992
