Converted from final.data
1.0
34.2592763079407661 0.0000000000000000 0.0000000000000000
0.4778125837430090 15.6441974208634136 0.0000000000000000
-0.0561728900348375 0.4267002414824154 14.7948798174821832
Al W Ni Zr Nb Ta
16 17 2 8 8 12
Direct
0.9950081356202144 0.5257587185277666 0.9975451588260423
0.1017769828389325 0.3413259681546927 0.5291310595383655
0.0112440587881289 0.3429869873736762 0.1330076592864246
-0.0172402510232282 0.2914400852091569 0.4258509833688494
0.0941237304152465 0.4019704901680839 0.3629032430387959
0.4171336100928122 0.3164059857801512 0.5555180852081502
0.2810823786017941 0.4281230766875052 0.0859768969796202
0.3289081989786936 0.1611285396833174 0.3375194248166886
0.3652583110663710 0.4417483642799720 0.0450279159749138
0.2758401206526597 0.1404168044303291 0.1654716183834284
0.2069251283329007 0.4420236955800698 0.3095525350230415
0.3200803527380078 0.2835517765296806 0.1370793531977469
0.9941486196408172 0.1736022287186763 0.0344175746878703
0.0753842390969029 0.0707136566822179 0.3195039357773647
0.5172260599113105 0.3868166429301347 0.1265129678473912
0.4289339610975044 0.3411673536815361 0.3747198589077789
-0.0288001004086123 0.2321376139168146 0.2240815017416829
0.0145312629281380 0.1394483953844402 0.4298840020702296
0.1334433397421995 0.2025604487119306 0.3378606530529740
0.0839830092290037 0.3045870972662880 0.0960708921539810
0.4107410096941901 0.9345605183217567 0.9956489034305196
0.4688776356050319 0.2189234674427245 0.4544885856386282
0.4039596858960214 0.1931004881356821 0.3155073955548182
0.2071260670066736 0.2653161912219049 0.3561945823385607
0.2715128700481731 0.0971728747521281 0.4735730993938306
0.3721249989443872 0.4503159161554516 0.3668472844811188
0.2310221773459582 0.2472745396986981 0.5302552092400203
0.2781342370896444 0.2744296901910967 0.4081189140980658
0.1107125812556319 0.1637539006348327 0.1774356200226442
0.1263309367192147 0.4455281653619823 0.0707050609900508
0.1567184759448778 0.2588473990093714 0.6355353152174023
0.3407346931802338 0.0174688541419433 0.4520461682969492
0.0437367265464902 0.4459954447352533 0.0052317552040087
0.9757188262225338 0.3906761795282612 0.1853619433009176
0.2590149995483568 0.1542546325517476 0.3162321266224276
0.3027666557703533 -0.0305552047643633 0.2737131778092852
0.0517679475641717 0.2535565275578550 0.2949794633225285
0.0750099321814044 0.0052968197235300 0.1233629250293968
-0.0020984869508685 0.0362415981979759 0.2638527167507045
0.1779482791725554 0.3854349996619115 0.4610426058438594
0.4828251081902264 0.2623694138381647 0.2636035020026014
0.4613912530292321 0.5123395824021140 0.0328878640787566
0.5773211294171439 0.2107085903722439 0.2307285772188162
-0.0030966433960368 0.5218004522829585 0.1184180473527521
0.9488607350785070 0.3201772811241048 0.3370931034532029
0.2932022720468844 0.3092452795370913 0.6031219109984046
0.9862512159474649 0.3568551427952940 0.0340027773675952
0.1369335427012408 0.0521598121472154 0.5998640208226975
0.2506478727313631 0.3268366294114038 0.2259317720766589
0.2799784405513469 0.9483259057318809 0.4610859485029754
0.1280259556636000 0.9927065429584104 0.4228964508337058
0.3595035680800538 0.1188688108562021 0.1548671217488957
0.3211404051557902 0.8804323496934304 0.9691713545518306
0.2276594975822277 0.1074065613301757 0.0165836058425454
0.4032140866691485 0.1357498604928065 0.4965451576003080
0.1979200293933966 0.1766620072702533 0.2069149365575848
0.0711639405942347 0.9258619282003646 0.3045372044645916
0.1490410058780894 0.3380304479448968 0.2328336488405826
0.2043110109233593 0.4419066342145045 0.1190218932620343
0.9420872771247063 -0.0033292864833959 0.3158055959246483
0.2632229417446962 0.5249449945882625 0.2390904407803221
0.3930172135956987 0.3265613536419631 0.2030597552473375
0.4343668309788180 -0.0098660424192124 0.1587315111423586
