Ni20 Cu4 Ta8 
1.0
8.2723860625011216e+00 0.0000000000000000e+00 0.0000000000000000e+00 
-4.8034487776143331e-07 6.0824872430478365e+00 0.0000000000000000e+00 
-2.2966295558004359e-07 -3.8492861981046570e-07 8.2720124701577920e+00 
Ni Cu Ta 
20 4 8 
Cartesian
   4.0274110320    0.1360954647    4.0272292711
   2.1687048111    4.4418151921    4.0715010818
   4.0716845537    4.4418152807    2.1686073332
   4.2871718745    5.9471701409    0.1825980577
   6.0533100930    1.6559388960    0.1825972305
   4.2871721662    1.6559388167    1.8854067143
   6.0533097068    5.9471639791    1.8854067143
   6.3130712024    1.3845259713    4.0272292711
   8.1717769405    3.1612934828    4.0715010818
   6.2687973035    3.1612935713    2.1686073332
   4.0274108699    1.3845258649    6.3127863166
   2.1687048512    3.1612933805    6.2685062338
   4.0716844882    3.1612932920    8.1714082545
   0.1826048885    5.9471638674    4.2869787347
   1.8854916159    1.6559447875    4.2869787347
   0.1826051784    1.6559447053    6.0530368530
   1.8854912280    5.9471698677    6.0530368530
   6.3130712376    0.1360947501    6.3127863166
   8.1717767784    4.4418150899    6.2685062338
   6.2687970357    4.4418150013    8.1714082545
   2.2442072679    0.1562151989    2.2441059910
   8.0962750656    1.3644051865    2.2441059910
   2.2442070100    1.3644049142    8.0959095967
   8.0962749985    0.1562149266    8.0959095967
   2.0752518477    2.8403024764    2.0751584083
   8.2652300148    4.7628063843    2.0751584083
   2.0752515240    4.7628060963    8.2648571794
   4.1438612005    2.7549650841    4.1436826627
   6.1966205471    4.8481435840    4.1436743906
   4.1438692506    4.8481434885    6.1963329250
   6.1966123830    2.7549649886    6.1963329250
   8.2652299948    2.8403021884    8.2648571794
