Cu-Zr from LAMMPS dump
1.0
24.6398540240258725 0.0000000000000000 0.0000000000000000
-6.9472185774723982 11.9086270887983048 0.0000000000000000
-0.0202363984935197 1.3082386945320577 13.6806890521693969
Cu Zr
180 76
Direct
0.0454056000000000 0.0894007000000000 0.4274200000000000
0.0162342000000000 0.2435200000000000 0.4113960000000000
0.0136727000000000 0.3184370000000000 0.2412990000000000
0.0013020600000000 0.0287795000000000 0.0793371000000000
0.3485840000000000 0.4743220000000000 0.2695740000000000
0.1980310000000000 0.4311290000000000 0.1266610000000000
0.3726190000000000 0.3395390000000000 0.1558200000000000
0.1112450000000000 0.0721139000000000 0.0726421000000000
0.1819670000000000 0.2523150000000000 0.1759630000000000
0.1753060000000000 0.1323290000000000 0.3035020000000000
0.1452970000000000 0.1547580000000000 0.4482960000000000
0.2801700000000000 0.2506260000000000 0.2881630000000000
0.2881440000000000 0.3593890000000000 0.1415590000000000
0.3460800000000000 0.4012970000000000 0.4506300000000000
0.1846970000000000 0.2661640000000000 0.0041767500000000
0.4359190000000000 0.1116890000000000 0.0418128000000000
0.3606010000000000 0.1648950000000000 0.1028300000000000
0.4667300000000000 0.0777140000000000 0.4395620000000000
0.4454360000000000 0.4030170000000000 0.4965280000000000
0.0669608000000000 0.3469710000000000 0.9292690000000000
0.1592820000000000 0.3875780000000000 0.8303890000000000
0.1173310000000000 0.2625270000000000 0.6858770000000000
0.0734725000000000 0.0714399000000000 0.5810340000000001
0.0684144000000000 0.3882120000000000 0.5501239999999999
0.0117521000000000 0.2378390000000000 0.8035230000000000
0.1202190000000000 0.2891660000000000 0.5120040000000000
0.0116511000000000 0.4867890000000000 0.5620080000000000
0.3536220000000000 0.4013880000000000 0.9789130000000000
0.2655750000000000 0.0466893000000000 0.9698420000000000
0.2577610000000000 0.2257760000000000 0.9528950000000000
0.1628300000000000 0.0536341000000000 0.5961310000000000
0.1215540000000000 0.0834505000000000 0.7372500000000000
0.3273320000000000 0.3707390000000000 0.8059460000000001
0.1590350000000000 0.0606138000000000 0.9288600000000000
0.3015380000000000 0.2293650000000000 0.5759570000000001
0.2015520000000000 0.2689230000000000 0.8221060000000000
0.3735840000000000 0.4106300000000000 0.6405900000000000
0.2722670000000000 0.0289575000000000 0.6365420000000001
0.2729200000000000 0.4729650000000000 0.7585890000000000
0.3891010000000000 0.1029570000000000 0.7101080000000000
0.4376920000000000 0.3156970000000000 0.6821030000000000
0.3778540000000000 0.0406509000000000 0.9059560000000000
0.0880888000000000 0.6739430000000000 0.4493660000000000
0.1499720000000000 0.9063850000000000 0.0699530000000000
0.1124260000000000 0.9581920000000000 0.2186770000000000
0.0418648000000000 0.5995660000000000 0.1426720000000000
0.0383352000000000 0.8739600000000000 0.0895356000000000
0.1955680000000000 0.9794800000000000 0.3071430000000000
0.1695110000000000 0.6623500000000000 0.3519770000000000
0.2388150000000000 0.9565970000000000 0.1477370000000000
0.2157870000000000 0.7540249999999999 0.1976830000000000
0.2651990000000000 0.8790460000000000 0.3285740000000000
0.2439500000000000 0.6562770000000000 0.0871410000000000
0.1609730000000000 0.5027380000000000 0.4287400000000000
0.1814400000000000 0.8343270000000000 0.4509060000000000
0.3727610000000000 0.9627700000000000 0.3531790000000000
0.2773690000000000 0.6015190000000000 0.4082330000000000
0.3542040000000000 0.9741080000000000 0.1789420000000000
0.1594900000000000 0.7362280000000000 0.0611897000000000
0.2172790000000000 0.5760110000000001 0.2501020000000000
0.2944630000000000 0.9634000000000000 0.4920710000000000
0.3531690000000000 0.7256600000000000 0.0320326000000000
0.4376940000000000 0.6016220000000000 0.4721680000000000
0.3741500000000000 0.7894320000000000 0.4436520000000000
0.4060010000000000 0.9162530000000000 0.0685281000000000
0.4473110000000000 0.9438460000000000 0.2368590000000000
0.3783570000000000 0.6574300000000000 0.3488060000000000
0.4315770000000000 0.7607740000000000 0.1810660000000000
0.3152220000000000 0.5891999999999999 0.1912370000000000
0.4908550000000000 0.5035100000000000 0.1417430000000000
0.1683250000000000 0.9035680000000000 0.6059110000000000
0.0339586000000000 0.7165510000000000 0.8161700000000000
0.0658266000000000 0.7509940000000001 0.9932660000000000
0.2858450000000000 0.7060400000000000 0.8960380000000000
0.1898150000000000 0.7373670000000000 0.9105690000000000
0.3310240000000000 0.8818450000000000 0.7674070000000000
0.3040300000000000 0.7204310000000000 0.6398020000000000
0.1386960000000000 0.6054349999999999 0.5500290000000000
0.1734460000000000 0.5424740000000000 0.9437710000000000
0.2371860000000000 0.6049160000000000 0.7832460000000000
0.2833620000000000 0.9721020000000000 0.8226869999999999
0.3871120000000000 0.6320550000000000 0.9206240000000000
0.3575280000000000 0.6899180000000000 0.7781220000000000
0.4762030000000000 0.7855830000000000 0.8004930000000000
0.4122640000000000 0.9026020000000000 0.9152640000000000
0.3875460000000000 0.5555340000000000 0.7572220000000000
0.4160600000000000 0.7784640000000000 0.6215570000000000
0.6051020000000000 0.2793510000000000 0.2918490000000000
0.5750640000000000 0.3480020000000000 0.1263590000000000
0.5428070000000000 0.4933270000000000 0.4163780000000000
0.5084419999999999 0.3010070000000000 0.4015070000000000
0.5655280000000000 0.4362940000000000 0.2597660000000000
0.5680550000000000 0.2560120000000000 0.4750970000000000
0.8378070000000000 0.3379230000000000 0.0196128000000000
0.6865460000000000 0.3463290000000000 0.4340900000000000
0.7889119999999999 0.3759880000000000 0.1584750000000000
0.6756490000000001 0.2298390000000000 0.2390170000000000
0.7323280000000000 0.4365880000000000 0.2511900000000000
0.7933060000000000 0.2087610000000000 0.2168680000000000
0.7176220000000000 0.2040380000000000 0.0731870000000000
0.7478310000000000 0.0838931000000000 0.0623040000000000
0.7719850000000000 0.0941454000000000 0.4170790000000000
0.6779020000000000 0.1355460000000000 0.4667670000000000
0.9653800000000000 0.1647710000000000 0.0056631700000000
0.9920460000000000 0.3461310000000000 0.0570700000000000
0.9205530000000000 0.4457030000000000 0.4149350000000000
0.6532990000000000 0.3596140000000000 0.6005700000000000
0.6297230000000000 0.4074810000000000 0.7382520000000000
0.5883930000000001 0.4137700000000000 0.9343330000000000
0.5116940000000000 0.4426470000000000 0.8392370000000000
0.5798930000000000 0.1323410000000000 0.5776060000000000
0.5173800000000000 0.0680374000000000 0.9357100000000000
0.5031369999999999 0.1950730000000000 0.6317540000000000
0.5704070000000000 0.2501180000000000 0.9973730000000000
0.6768990000000000 0.3608450000000000 0.8810700000000000
0.7512680000000000 0.4875260000000000 0.5311669999999999
0.6239470000000000 0.1343840000000000 0.9818490000000000
0.6797290000000000 0.2022730000000000 0.6480800000000000
0.8502930000000000 0.3884050000000000 0.8107060000000000
0.8099310000000000 0.1917720000000000 0.8727009999999999
0.7312810000000000 0.2605220000000000 0.8841460000000000
0.6911910000000000 0.0849719000000000 0.7933570000000000
0.7771500000000000 0.2607450000000000 0.7186780000000000
0.7700040000000000 0.3370530000000000 0.5641150000000000
0.7831460000000000 0.4531890000000000 0.9332630000000000
0.8419040000000000 0.2631590000000000 0.5154570000000001
0.9449060000000000 0.3060460000000000 0.5013490000000000
0.9191950000000000 0.1129380000000000 0.7482050000000000
0.9871420000000000 0.3344050000000000 0.6774130000000000
0.8464690000000000 0.0999614000000000 0.5422960000000000
0.8705349999999999 0.2260450000000000 0.6864280000000000
0.8577360000000001 0.0620544000000000 0.8857969999999999
0.9910540000000000 0.0388598000000000 0.7538360000000000
0.5621820000000000 0.9009450000000000 0.1981550000000000
0.6177530000000000 0.8139700000000000 0.2758370000000000
0.5580090000000000 0.6852870000000000 0.4461270000000000
0.6020420000000000 0.6066910000000000 0.1720680000000000
0.5340370000000000 0.7106940000000000 0.1355480000000000
0.6089140000000000 0.9232160000000000 0.4593540000000000
0.6300180000000000 0.9479240000000000 0.0811674000000000
0.6202490000000001 0.6592680000000000 0.3410040000000000
0.6586840000000000 0.5014860000000000 0.2061950000000000
0.6714020000000001 0.5452560000000000 0.0481720000000000
0.7763120000000000 0.7725680000000000 0.0975631000000000
0.7673100000000000 0.6055980000000000 0.3345380000000000
0.7855110000000000 0.6274680000000000 0.1538640000000000
0.7164160000000001 0.7223960000000000 0.2491790000000000
0.8029390000000000 0.9136810000000000 0.4551020000000000
0.8832920000000000 0.9543170000000000 0.1306140000000000
0.7311750000000000 0.7280130000000000 0.4188030000000000
0.7999810000000001 0.9637980000000000 0.0359080000000000
0.9185420000000000 0.9952470000000000 0.4592310000000000
0.8489050000000000 0.5148750000000000 0.4730600000000000
0.9654750000000000 0.6504080000000000 0.1170830000000000
0.9669990000000001 0.9053270000000000 0.3895570000000000
0.8474920000000000 0.5516770000000000 0.0659894000000000
0.9333540000000000 0.7197570000000000 0.3955770000000000
0.9858070000000000 0.8171440000000000 0.2573010000000000
0.9764830000000000 0.6261940000000000 0.4942300000000000
0.5582279999999999 0.7401520000000000 0.7826660000000000
0.6071780000000000 0.7744130000000000 0.5994030000000000
0.5773560000000000 0.7415460000000000 0.9830330000000000
0.5755640000000000 0.5718280000000000 0.9824560000000000
0.6746140000000000 0.8679410000000000 0.7631019999999999
0.5106510000000000 0.9446050000000000 0.5119420000000000
0.5076360000000000 0.7817490000000000 0.5542130000000000
0.6933380000000000 0.5577720000000000 0.8486710000000000
0.8943020000000000 0.9722030000000000 0.6389370000000000
0.7038370000000000 0.9497510000000000 0.9287330000000000
0.6858860000000000 0.5625030000000000 0.6088690000000000
0.7839150000000000 0.6801110000000000 0.7189680000000001
0.8430569999999999 0.8735320000000000 0.7987960000000000
0.6345040000000000 0.6421710000000000 0.5361650000000000
0.9612340000000000 0.7490140000000000 0.5766810000000000
0.8503770000000000 0.6068140000000000 0.6128580000000000
0.8673440000000000 0.5719740000000000 0.8156990000000000
0.9959550000000000 0.5138070000000000 0.7682770000000000
0.9506460000000000 0.6213920000000001 0.6998710000000000
0.9784119999999999 0.9289120000000000 0.5536520000000000
0.9266750000000000 0.7121630000000000 0.9396420000000000
0.1142010000000000 0.3182460000000000 0.3054320000000000
0.0867468000000000 0.2695120000000000 0.1082780000000000
0.0526511000000000 0.0460414000000000 0.2639620000000000
0.0392555000000000 0.4782520000000000 0.3840640000000000
0.1066400000000000 0.4958800000000000 0.1464770000000000
0.2442790000000000 0.4086890000000000 0.4161250000000000
0.2426780000000000 0.1423230000000000 0.1279650000000000
0.2332850000000000 0.0662953000000000 0.4601250000000000
0.4711850000000000 0.1700740000000000 0.2243330000000000
0.3361030000000000 0.1048790000000000 0.2931350000000000
0.4810520000000000 0.3497910000000000 0.0259831000000000
0.4157220000000000 0.3296920000000000 0.3163350000000000
0.0790193000000000 0.1469120000000000 0.8959230000000000
0.2036860000000000 0.4879900000000000 0.6070800000000000
0.0991270000000000 0.4756840000000000 0.7494810000000000
0.2614110000000000 0.1532040000000000 0.7575320000000000
0.2252390000000000 0.2891600000000000 0.6184790000000000
0.2730070000000000 0.4782780000000000 0.9652240000000000
0.3806760000000000 0.2457150000000000 0.8733000000000000
0.3884700000000000 0.1756630000000000 0.5233470000000000
0.4971340000000000 0.2358000000000000 0.8203440000000000
0.1237840000000000 0.7915240000000000 0.2447870000000000
0.0786383000000000 0.8834460000000000 0.4418760000000000
0.0019421000000000 0.6557660000000000 0.3133040000000000
0.2577890000000000 0.7435600000000000 0.4860860000000000
0.3248760000000000 0.7640970000000000 0.2416930000000000
0.3003370000000000 0.8741330000000000 0.0164405000000000
0.4050150000000000 0.5797820000000000 0.1005490000000000
0.4769400000000000 0.5900570000000001 0.3087140000000000
0.4882070000000000 0.8339370000000000 0.0249427000000000
0.0359144000000000 0.8857740000000000 0.9046560000000000
0.0626249000000000 0.6849490000000000 0.6242980000000000
0.0552280000000000 0.8891520000000001 0.6834249999999999
0.1648150000000000 0.8989950000000000 0.8502990000000000
0.0736568000000000 0.5545140000000000 0.9531570000000000
0.2071900000000000 0.7667600000000000 0.7099130000000000
0.3937140000000000 0.9601990000000000 0.5829810000000000
0.3366200000000000 0.5795480000000000 0.5484270000000000
0.4687870000000000 0.5698000000000000 0.8964270000000000
0.4912290000000000 0.9980760000000000 0.7424430000000000
0.5620090000000000 0.0843955000000000 0.1304530000000000
0.5715490000000000 0.0941354000000000 0.3616390000000000
0.6906490000000000 0.3735130000000000 0.0662933000000000
0.7850180000000000 0.3076170000000000 0.3795920000000000
0.6853650000000000 0.0383818000000000 0.2894110000000000
0.9417810000000000 0.1022730000000000 0.2555780000000000
0.8838970000000000 0.2064140000000000 0.3437180000000000
0.9179610000000000 0.4177270000000000 0.2038250000000000
0.8655590000000000 0.1477090000000000 0.0999834000000000
0.5535409999999999 0.4254140000000000 0.5942550000000000
0.6186480000000000 0.1998230000000000 0.7740650000000000
0.7618950000000000 0.4377680000000000 0.7244790000000000
0.7363360000000000 0.0540770000000000 0.6064330000000000
0.8859160000000000 0.4245610000000000 0.6354350000000000
0.7930290000000000 0.0095892800000000 0.7451370000000000
0.9452500000000000 0.3120500000000000 0.8822560000000000
0.9956080000000000 0.1675540000000000 0.6064740000000000
0.5001380000000000 0.8134690000000000 0.3593330000000000
0.7685740000000000 0.9642800000000000 0.2418190000000000
0.6778800000000000 0.8215590000000000 0.0950611000000000
0.6909330000000000 0.8625340000000000 0.4450940000000000
0.8395760000000000 0.8302780000000000 0.2833060000000000
0.6460750000000000 0.5033860000000000 0.4104640000000000
0.8613459999999999 0.5462380000000000 0.2630140000000000
0.9083530000000000 0.7781210000000000 0.1026310000000000
0.5893150000000000 0.9370500000000000 0.6537290000000000
0.5898860000000000 0.9366130000000000 0.8781820000000000
0.5037260000000000 0.5764810000000000 0.6562670000000000
0.7298130000000000 0.7793830000000000 0.9076430000000000
0.7992620000000000 0.6705989999999999 0.9277820000000000
0.7333610000000000 0.7935730000000000 0.6227890000000000
0.6236270000000000 0.6366970000000000 0.7530260000000000
0.8409450000000001 0.7576530000000000 0.5111430000000000
0.9195500000000000 0.9506150000000000 0.9341340000000000
0.9143130000000000 0.7987480000000000 0.7481030000000000
0.9441420000000000 0.5139220000000000 0.9679710000000000
