Ni3 Nb1 
1.0
4.1499315196758539e+00 0.0000000000000000e+00 0.0000000000000000e+00 
2.0749663768654321e+00 3.5939471887534489e+00 0.0000000000000000e+00 
2.0749663931154840e+00 1.1979824056331219e+00 3.3884059310010008e+00 
Ni Nb 
3 1 
Cartesian
   2.0750469961    1.1980291199    0.8471014828
   4.1499860939    2.3959935488    1.6942029655
   6.2249791409    3.5939939171    2.5413044483
   2.0750215905    3.5937279633    0.0000000151
