Al6 Nb1 Ta1 
1.0
3.8513968687994731e+00 0.0000000000000000e+00 0.0000000000000000e+00 
-5.1174898821985126e-07 3.8513981530787542e+00 0.0000000000000000e+00 
-2.7420197182135923e-07 -4.6394255779756631e-08 8.6052034134277982e+00 
Al Nb Ta 
6 1 1 
Cartesian
   1.9256940529    1.9256990301    8.6052034134
  -0.0000002938    1.9256990649    2.1587271439
   1.9256901511    3.8513981414    2.1587271439
  -0.0000006424    3.8513981299    4.3026017067
   1.9256900144    3.8513981183    6.4464762695
  -0.0000004099    1.9256990418    6.4464762695
   3.8513845287    3.8513981067    8.6052034134
   1.9256980414    1.9256990533    4.3026017067
