Al2 Cu1                                 
   1.00000000000000     
     4.1357362493908481    0.0000000000000000    0.0000000000000000
     0.0000000000000000    4.1357362493908481    0.0000000000000000
     0.0000000000000000   -0.0000000000000000    2.8713318002934907
   Al   Cu
     2     1
Direct
  0.5000000000000000 -0.0000000000000000  0.5000000000000000
  0.0000000000000000  0.5000000000000000  0.5000000000000000
  0.0000000000000000 -0.0000000000000000  0.0000000000000000
 
  0.00000000E+00  0.00000000E+00  0.00000000E+00
  0.00000000E+00  0.00000000E+00  0.00000000E+00
  0.00000000E+00  0.00000000E+00  0.00000000E+00
