Converted from final.data
1.0
15.8640923732830412 0.0000000000000000 0.0000000000000000
-0.4461814281536886 33.5973299931946201 0.0000000000000000
0.3322706202471792 0.2883229495399784 15.5498971875787539
Al Zr Nb W Ta Cu
2 14 14 3 6 22
Direct
0.3292880367070916 0.3010267882690519 0.2049267089166207
0.6881261925998795 0.3471379410320759 0.1786419182509287
0.9816988526518013 0.0295027055802995 0.5188327943715549
0.3064831162242815 0.2178898722762922 0.2152077563054254
0.3450960546431296 0.2661815722744770 0.3823091789009913
0.1105140269451599 0.4985495619746591 0.5189192880613153
0.2704893392488940 0.2199315188355589 0.9273340023415990
0.1821088480676828 0.1580572730766077 0.5351030744237596
0.3814790765698704 0.1162901960278363 0.5862406788158574
0.3265107391258600 0.0943560118810006 0.1061002017682408
0.0434006305767169 0.2350034930447776 0.5511385946765964
0.5117627222200476 0.2873860268546753 0.7041127428651145
0.3017764783254415 0.1644305818522497 0.3817159128474010
0.3279995031154830 0.0113772460812680 0.3662377884121986
0.5868982520866973 0.0764833287759579 0.4621164424115656
0.1266728073522373 0.1933500606954281 0.2830061489702859
0.3185418574261287 0.9333605853456044 0.2160732659940477
0.4640028772401082 0.4061460331706755 0.0253855013662191
0.5030238301818708 0.3308756248515705 0.1435382626214948
0.1872136024020122 0.2334275633132951 0.4308908270167677
0.4002390637342235 0.3893459434431855 0.1940827884958052
0.2742502883228313 0.4225496013654797 0.0999612449509640
0.1535623845112115 0.4727410108828746 0.3324796193916513
0.1426169242831919 0.5207518790460778 0.9718016567500140
0.0448578715301927 0.3974982917951272 0.2734205696747487
0.1061503956261946 0.4578007286074168 0.1505494552624043
0.2250632402253928 0.2755024731095623 0.0732431167264879
0.0565670161448303 0.3853775540617975 0.0868184166222960
0.0178318773877818 0.3536459258389610 0.4323050430556914
0.0563081486368872 0.2704190774276303 0.3590161183832972
0.0298519659116274 0.4375414485947479 0.4237782423629878
0.3582765432122152 0.4100560310367827 0.3623315809861952
0.7645554466642066 0.3819367316060282 0.0377609961293722
0.3406131457661066 0.4808350740579579 0.9904061772198516
0.2054625812834955 0.3581990229002558 0.9875202740247653
0.4344261299123048 0.3382706547729913 0.3311283198641409
0.9973227060799646 0.5147832168028579 0.1157444519065692
0.8855405065522127 0.9933487407839163 0.2238278842472174
0.9148252009238739 0.4314659546917146 0.1284597840836766
0.1616332094969422 0.0906321611894995 0.0346290245389803
0.2265957386193379 0.4080682985964533 0.2673187123577723
0.0976473185741291 0.5310175753855538 0.2336004139040558
0.6326707343216008 0.2795041060563980 0.1601025784474783
0.3782608027731652 0.5572711223977295 0.1529112836990418
0.4916564013457589 0.5202022510104879 0.2788924959148836
0.8215298010419954 0.2054832074855469 0.1970304039683477
0.6225321249344201 0.1498422036981154 0.5460805077287803
0.7872591218019651 0.1427108046175624 0.3115842158703753
0.2701624126950059 0.0895963271310171 0.4646605462173949
0.0897483075129232 0.2443261858065517 0.1378061677560106
0.3500249187670653 0.0074085444694612 0.1760099988381509
0.1836924151687317 0.2734076227324208 0.2544007835869284
0.2976462291846627 0.0842828865298645 0.2866890535516060
0.9717581943499941 0.1347704927284881 0.3082377824631898
0.0797324213279304 0.1267189038243640 0.1750849237093245
0.9661590453118336 0.0742624089997787 0.2235288840775555
0.9874580282529228 0.1961309669909207 0.1974227456530338
0.0272147402050565 0.0476670126320099 0.1040531322118952
0.2283984836849538 0.1431226597111199 0.2004293632591278
0.8975829925385096 0.4191535381691910 0.9696996289407158
0.8346586113058148 0.5030770615650370 0.1622800229403099
