Cu1 Zr3 
1.0
4.2297122924573021e+00 0.0000000000000000e+00 0.0000000000000000e+00 
2.0028296031662158e-18 4.2297122924573021e+00 0.0000000000000000e+00 
2.0028296031662158e-18 -1.7024051626912839e-17 4.2297122924573021e+00 
Cu Zr 
1 3 
Cartesian
   0.0000000000    4.2297122925    0.0000000000
   2.1148561462    2.1148561462    0.0000000000
   2.1148561462   -0.0000000000    2.1148561462
   0.0000000000    2.1148561462    2.1148561462
