Zr1                                     
   1.00000000000000     
     2.9167147773417179   -0.0000000004602212   -1.0312130798110815
    -1.4583568804190297    2.5259490082063758   -1.0312130798168613
     0.0000000080227274    0.0000000165611047    3.0936412884723081
   Zr
     1
Direct
  0.0000000000000000  0.0000000000000000  0.0000000000000000
 
  0.00000000E+00  0.00000000E+00  0.00000000E+00
