Ni6 Cu12 Zr3 Nb3 
1.0
8.1295879266229143e+00 0.0000000000000000e+00 0.0000000000000000e+00 
7.8165676522659150e-05 4.5958825442644766e+00 0.0000000000000000e+00 
5.2557407336462478e-06 7.6139986316346142e-01 8.8878703718969270e+00 
Ni Cu Zr Nb 
6 12 3 3 
Cartesian
   0.0500889989    3.3333737492    2.2813119034
   2.6598851666    3.3333737492    2.2813119034
   1.3549724640    2.4813085578    4.3532789082
   1.3549839748    3.3830365394    8.7724524872
   0.1116953888    3.2746987827    6.4267035236
   2.5982664332    3.2746987827    6.4267035236
   0.0829283409    0.3051968736    0.3149079127
   1.3549520817    1.1745856068    2.2252916565
   2.6269430536    0.3051964141    0.3149079127
   4.0081805953    1.1326869794    2.2213454420
   4.0013563220    2.4733799558    4.4884100893
   5.4197346726    0.4002442947    0.1489420429
   6.8313019467    1.1326869794    2.2213454420
   6.8381678994    2.4733799558    4.4884100893
   4.1138270977    1.0346661932    6.7903418520
   5.4197792191    3.3341689791    6.3325987521
   5.4197314552    0.4329918759    4.5090477243
   6.7256523292    1.0346661932    6.7903418520
   5.4197843014    3.4306971834    2.3580942156
   3.8615233613    3.4011883201    8.6112709581
   6.9780252818    3.4011883201    8.6112709581
   0.0026783289    4.7772748192    4.4044197143
   2.7073359022    4.7772748192    4.4044197143
   1.3549449776    0.9936731176    6.8773363272
