Al3 Ni2 
1.0
4.0459949383745304e+00 0.0000000000000000e+00 0.0000000000000000e+00 
-2.0228971924071049e+00 3.5039343145760875e+00 0.0000000000000000e+00 
-3.7822385168260223e-08 1.4412602501409753e-08 4.8781890789884255e+00 
Al Ni 
3 2 
Cartesian
   0.0002894072    0.0000001317    4.8781890790
   0.0001052636    2.3359573871    3.1734571234
   2.0230733645    1.1679769419    1.7047319555
   0.0001174204    2.3359573799    0.7431823498
   2.0230854836    1.1679769491    4.1350067292
