bcc_Al0_Cu0_Nb3_Ni9_Ta6_W0_Zr6          
   1.00000000000000     
     9.8842951057777526    0.0000000000000000    0.0000000000000000
     0.0000000000000000    6.5437101207190462    0.0000000000000000
     0.0000000000000000    0.0000000000000000    6.1022198163812345
   Nb   Ni   Ta   Zr
     3     9     6     6
Direct
  0.1666666666666643  0.2500000000000000  0.7806008328601853
  0.5000000000000000  0.2500000000000000  0.7806008328601852
  0.8333333333333357  0.2500000000000000  0.7806008328601853
  0.1666666666666643  0.2500000000000000  0.2502418678149509
  0.5000000000000000  0.2500000000000000  0.2502418678149509
  0.8333333333333357  0.2500000000000000  0.2502418678149509
  0.0000000000000000  0.4631916924749277  0.0062205102007588
  0.3333333333333357  0.4631916924749277  0.0062205102007588
  0.6666666666666643  0.4631916924749277  0.0062205102007588
  0.0000000000000000  0.0368083075250724  0.0062205102007588
  0.3333333333333357  0.0368083075250724  0.0062205102007588
  0.6666666666666643  0.0368083075250724  0.0062205102007588
  0.0000000000000000  0.0237789860277866  0.4843490102617811
  0.3333333333333357  0.0237789860277866  0.4843490102617811
  0.6666666666666643  0.0237789860277866  0.4843490102617811
  0.0000000000000000  0.4762210139722133  0.4843490102617811
  0.3333333333333357  0.4762210139722133  0.4843490102617811
  0.6666666666666643  0.4762210139722133  0.4843490102617811
  0.1666666666666643  0.7500000000000000  0.7613960786635312
  0.5000000000000000  0.7500000000000000  0.7613960786635312
  0.8333333333333357  0.7500000000000000  0.7613960786635312
  0.1666666666666643  0.7500000000000000  0.2266221797362531
  0.5000000000000000  0.7500000000000000  0.2266221797362531
  0.8333333333333357  0.7500000000000000  0.2266221797362531
 
  0.00000000E+00  0.00000000E+00  0.00000000E+00
  0.00000000E+00  0.00000000E+00  0.00000000E+00
  0.00000000E+00  0.00000000E+00  0.00000000E+00
  0.00000000E+00  0.00000000E+00  0.00000000E+00
  0.00000000E+00  0.00000000E+00  0.00000000E+00
  0.00000000E+00  0.00000000E+00  0.00000000E+00
  0.00000000E+00  0.00000000E+00  0.00000000E+00
  0.00000000E+00  0.00000000E+00  0.00000000E+00
  0.00000000E+00  0.00000000E+00  0.00000000E+00
  0.00000000E+00  0.00000000E+00  0.00000000E+00
  0.00000000E+00  0.00000000E+00  0.00000000E+00
  0.00000000E+00  0.00000000E+00  0.00000000E+00
  0.00000000E+00  0.00000000E+00  0.00000000E+00
  0.00000000E+00  0.00000000E+00  0.00000000E+00
  0.00000000E+00  0.00000000E+00  0.00000000E+00
  0.00000000E+00  0.00000000E+00  0.00000000E+00
  0.00000000E+00  0.00000000E+00  0.00000000E+00
  0.00000000E+00  0.00000000E+00  0.00000000E+00
  0.00000000E+00  0.00000000E+00  0.00000000E+00
  0.00000000E+00  0.00000000E+00  0.00000000E+00
  0.00000000E+00  0.00000000E+00  0.00000000E+00
  0.00000000E+00  0.00000000E+00  0.00000000E+00
  0.00000000E+00  0.00000000E+00  0.00000000E+00
  0.00000000E+00  0.00000000E+00  0.00000000E+00
