Ta1 W1
1.0
   1.6141287900000001   -2.3070255000000000    0.0000000000000000
   1.6141287900000001    2.3070255000000000    0.0000000000000000
   0.0000000000000000    0.0000000000000000    4.5213984099999998
Ta W
1 1
direct
   0.0000000000000000    0.0000000000000000    0.0000000000000000 Ta
   0.5000000000000000    0.5000000000000000    0.5000000000000000 W
