Cu4 Zr2 
1.0
4.8331184115465309e+00 0.0000000000000000e+00 0.0000000000000000e+00 
-2.4432045422664248e+00 4.1698490801238517e+00 0.0000000000000000e+00 
6.9412841730255981e-01 1.2111404084879409e+00 4.5990309914935130e+00 
Cu Zr 
4 2 
Cartesian
   1.0387838591    4.7656898212    3.4494434078
   3.5870321438    3.3053711447    3.4494434078
  -0.5029942336    2.0756225138    1.1495875837
   2.0452591605    0.6152984165    1.1495875837
   1.1179991466    1.9506856122    3.4491996591
   1.9660431400    3.4303038764    1.1498313324
