Converted from final.data
1.0
30.0253509906229326 0.0000000000000000 0.0000000000000000
0.1814271303452286 15.2818250918201457 0.0000000000000000
-0.4313134343898781 0.0566912472429416 15.8074049610504108
Al W Ni Zr Ta
4 32 7 15 2
Direct
0.2104917664907191 0.2896884816720318 0.0590391948454319
0.2853023803606551 0.3205554505662369 0.0034635242094845
0.2264756041770011 0.5572257056912355 0.1493781200095777
0.8314505002527667 0.2898961166804719 0.2522827956878878
0.3002936087644989 0.4049609795571429 0.4402039164091312
0.0754133682723945 0.4785559315127429 0.9460581686516309
0.0699284804740385 0.4028430265176768 0.2003035006703943
0.0552101013990289 0.2554874665129219 0.9796219213862716
0.0161513638706787 0.2768555800127250 0.2184278353238163
0.0168424107571002 0.1162201689381102 0.8861219758142385
0.0358988522803926 0.1273371657759315 0.1885929580843037
-0.0341433998834512 0.4128793648182437 0.1997798849975630
0.1184929853187150 0.1148293731425823 0.4774400404153288
0.1330549228512521 0.3747740880708403 -0.0120151801940910
0.0096075957110512 0.1829318898767526 0.3414311342498689
0.1391290268372518 0.4088629086146032 0.3627654909850314
0.9614008210445991 0.4094569661618510 0.0658059696053319
-0.0190879752125351 0.5000095371603345 0.3303164472207711
0.0742141556602470 0.0759029235530182 0.3442640390354187
0.0550809758773481 0.3546279385503139 0.3486242927263971
0.2131995351952665 0.3408987284831062 0.4014455378731232
0.2971307152399646 0.3130947881627167 0.2982508516967781
0.4266783915615062 0.1279236910174279 0.3712556495140292
0.4134733855601628 0.0125161600777978 0.2414518128146689
0.4351599149243632 0.2882597616240750 0.1508537834955457
0.1981232474916249 0.1005623085899436 0.2400817167535225
0.0123281045701748 0.9843460734951460 0.3919493549991812
0.1644542609987077 0.4775721184222116 0.5238720350977389
0.4418687454420224 0.9275347608715141 0.9874053559366170
0.2143031074595881 0.2673824298442770 0.2544297307374939
0.4014788108678873 0.8756751150895343 0.1250084884634652
0.3721318112127067 0.1876345055585000 0.2568181868752707
0.4297026535856562 -0.0095497749291362 0.0825452272252384
0.1463041869059135 0.1487125015076018 0.1176114324960603
0.0816602344719399 0.2511111077700376 0.0991752385761011
0.7813588070681335 0.3882390129210183 0.3613385639849669
0.9721464197978408 0.2028264575394088 0.1893268445358459
0.0298563141850202 0.3764243925959352 0.8812962300859474
0.0552269933534700 0.4059090313703774 0.0296877762196072
0.4979336114597845 0.2124144916204992 0.4121276099473266
0.2487101626957839 0.0138943540180388 0.1580470846332853
0.2571012964972259 0.3855076477527474 0.1420584893821106
0.4930775091610742 0.0268885232700484 0.3484170361500323
0.2822582890094120 0.1826480681056124 0.1469998409673815
0.2277715381981434 0.1302093336911743 -0.0081789310695010
0.1629374841022969 0.4158387152685602 0.1807903744999042
0.0719730074323264 0.0526296754290016 0.0022791209021369
-0.0122070970339884 0.1654645842830412 0.0256732458962794
0.2605237162749537 -0.0269971112315500 0.9221535547072099
0.9145655206203190 0.3186558143474857 0.1930060310543436
0.4880521749642821 0.0667786189141345 0.5205428509316397
0.2517458054080049 -0.0291625479659654 0.3327131289314286
0.3484515448133422 0.3322478404434665 0.1464017608258739
0.3487883954516641 0.0063377360567772 0.3651720063665574
0.3767019622756765 0.1338059309487147 0.0864802388911119
0.1147891441506124 0.2246005289865645 0.2993536928745163
0.3870780500969520 0.2781290147991883 -0.0275329049557695
0.2069950986457041 0.1429722661436280 0.6319551589460290
0.8804133306208750 0.2286642159215288 0.0348809697911419
0.8580349323931513 0.1332651621198172 0.2159044817197273
