Al2 Nb6 
1.0
5.1046606737989597e+00 0.0000000000000000e+00 0.0000000000000000e+00 
1.2839388021223111e-16 5.1046606737989597e+00 0.0000000000000000e+00 
8.5595920141487400e-17 -2.7818674045983416e-16 5.1046606737989588e+00 
Al Nb 
2 6 
Cartesian
   5.1046606738    0.0000000000    5.1046606738
   2.5523303369    2.5523303369    2.5523303369
   1.2761651684    5.1046606738    2.5523303369
   3.8284955053    5.1046606738    2.5523303369
   5.1046606738    2.5523303369    1.2761651684
   5.1046606738    2.5523303369    3.8284955053
   2.5523303369    3.8284955053    0.0000000000
   2.5523303369    1.2761651684    5.1046606738
