Cu1 Zr3 
1.0
4.3141039102000027e+00 0.0000000000000000e+00 0.0000000000000000e+00 
0.0000000000000000e+00 4.3141039102000027e+00 0.0000000000000000e+00 
0.0000000000000000e+00 0.0000000000000000e+00 4.3141039102000027e+00 
Cu Zr 
1 3 
Cartesian
   4.3141039102    4.3141039102    4.3141039102
   2.1570519551    2.1570519551    0.0000000010
   2.1570519551    0.0000000009    2.1570519551
   0.0000000009    2.1570519551    2.1570519551
