Ta4 Cu3 Ni9
1.0
   4.3183210000000001    0.0000000000000000    0.0000000000000000
   0.0000000000000000    4.4825390000000001    0.0000000000000000
   0.0000000000000000    0.0000000000000000   10.3634970000000006
Ta Cu Ni
4 3 9
direct
   0.5000000000000000    0.6623300000000001    0.2550600000000000 Ta
   0.5000000000000000    0.6623300000000001    0.7449400000000000 Ta
   0.0000000000000000    0.3362560000000000    0.0000000000000000 Ta
   0.0000000000000000    0.3501440000000000    0.5000000000000000 Ta
   0.0000000000000000    0.3130330000000000    0.2499209999999990 Cu
   0.0000000000000000    0.3130330000000000    0.7500789999999991 Cu
   0.5000000000000000    0.6868590000000000    0.0000000000000000 Cu
   0.5000000000000000    0.6759320000000000    0.5000000000000000 Ni
   0.5000000000000000    0.1651389999999990    0.3774490000000000 Ni
   0.5000000000000000    0.1683579999999990    0.8749190000000000 Ni
   0.5000000000000000    0.1683579999999990    0.1250810000000000 Ni
   0.5000000000000000    0.1651389999999990    0.6225510000000000 Ni
   0.0000000000000000    0.8365030000000000    0.3753579999999990 Ni
   0.0000000000000000    0.8300419999999999    0.8734480000000000 Ni
   0.0000000000000000    0.8300419999999999    0.1265520000000000 Ni
   0.0000000000000000    0.8365030000000000    0.6246419999999990 Ni
