fcc_Al8_Cu0_Nb8_Ni8_Ta0_W8_Zr0          
   1.00000000000000     
     8.7665590482583511    0.0000000000000000    0.0000000000000000
     0.0000000000000000    6.2352426048648111    0.0000000000000000
     0.0000000000000000    0.0000000000000000    8.9020301347374051
   Al   Nb   Ni   W 
     8     8     8     8
Direct
  0.5196259623839874  0.4526340557735611  0.5181364782814002
  0.7303740376160126  0.7973659442264387  0.5181364782814002
  0.5196259623839874  0.7973659442264387  0.7318635217185998
  0.7303740376160126  0.4526340557735611  0.7318635217185998
 -0.0009362502868348 -0.0090304927439405  0.4821599184067198
  0.2509362502868351  0.2590304927439404  0.4821599184067198
 -0.0009362502868348  0.2590304927439404  0.7678400815932807
  0.2509362502868351 -0.0090304927439405  0.7678400815932807
  0.5016701342001034  0.5012734737377310 -0.0116137297177878
  0.7483298657998965  0.7487265262622691 -0.0116137297177878
  0.5016701342001034  0.7487265262622691  0.2616137297177878
  0.7483298657998965  0.5012734737377310  0.2616137297177878
 -0.0124982403885824  0.5060755760667076  0.5022162008454401
  0.2624982403885826  0.7439244239332926  0.5022162008454401
 -0.0124982403885824  0.7439244239332926  0.7477837991545599
  0.2624982403885826  0.5060755760667076  0.7477837991545599
  0.0044064357319596  0.5019444560635963  0.0035554216646760
  0.2455935642680404  0.7480555439364035  0.0035554216646760
  0.0044064357319596  0.7480555439364035  0.2464445783353240
  0.2455935642680404  0.5019444560635963  0.2464445783353240
  0.4901056262569868  0.0327008177197546  0.4953151610753719
  0.7598943737430133  0.2172991822802454  0.4953151610753719
  0.4901056262569868  0.2172991822802454  0.7546848389246280
  0.7598943737430133  0.0327008177197546  0.7546848389246280
  0.0034400431962701 -0.0066311359163042  0.0035801566329199
  0.2465599568037299  0.2566311359163042  0.0035801566329199
  0.0034400431962701  0.2566311359163042  0.2464198433670801
  0.2465599568037299 -0.0066311359163042  0.2464198433670801
  0.4964370703305581  0.0031083753709728  0.0008413912797113
  0.7535629296694417  0.2468916246290271  0.0008413912797114
  0.4964370703305581  0.2468916246290271  0.2491586087202886
  0.7535629296694417  0.0031083753709728  0.2491586087202886
 
  0.00000000E+00  0.00000000E+00  0.00000000E+00
  0.00000000E+00  0.00000000E+00  0.00000000E+00
  0.00000000E+00  0.00000000E+00  0.00000000E+00
  0.00000000E+00  0.00000000E+00  0.00000000E+00
  0.00000000E+00  0.00000000E+00  0.00000000E+00
  0.00000000E+00  0.00000000E+00  0.00000000E+00
  0.00000000E+00  0.00000000E+00  0.00000000E+00
  0.00000000E+00  0.00000000E+00  0.00000000E+00
  0.00000000E+00  0.00000000E+00  0.00000000E+00
  0.00000000E+00  0.00000000E+00  0.00000000E+00
  0.00000000E+00  0.00000000E+00  0.00000000E+00
  0.00000000E+00  0.00000000E+00  0.00000000E+00
  0.00000000E+00  0.00000000E+00  0.00000000E+00
  0.00000000E+00  0.00000000E+00  0.00000000E+00
  0.00000000E+00  0.00000000E+00  0.00000000E+00
  0.00000000E+00  0.00000000E+00  0.00000000E+00
  0.00000000E+00  0.00000000E+00  0.00000000E+00
  0.00000000E+00  0.00000000E+00  0.00000000E+00
  0.00000000E+00  0.00000000E+00  0.00000000E+00
  0.00000000E+00  0.00000000E+00  0.00000000E+00
  0.00000000E+00  0.00000000E+00  0.00000000E+00
  0.00000000E+00  0.00000000E+00  0.00000000E+00
  0.00000000E+00  0.00000000E+00  0.00000000E+00
  0.00000000E+00  0.00000000E+00  0.00000000E+00
  0.00000000E+00  0.00000000E+00  0.00000000E+00
  0.00000000E+00  0.00000000E+00  0.00000000E+00
  0.00000000E+00  0.00000000E+00  0.00000000E+00
  0.00000000E+00  0.00000000E+00  0.00000000E+00
  0.00000000E+00  0.00000000E+00  0.00000000E+00
  0.00000000E+00  0.00000000E+00  0.00000000E+00
  0.00000000E+00  0.00000000E+00  0.00000000E+00
  0.00000000E+00  0.00000000E+00  0.00000000E+00
