Al2 Cu1 
1.0
4.0890579219185241e+00 0.0000000000000000e+00 0.0000000000000000e+00 
-2.0445800535024330e+00 3.5412676516154917e+00 0.0000000000000000e+00 
-2.2873967525796455e-05 -2.3609439734460143e+00 3.3387241038461264e+00 
Al Cu 
2 1 
Cartesian
   2.0440706255    1.1801536973    3.3387241038
   2.0444224865   -1.1803286263    1.6693620519
  -0.0001122184    0.0001099916    2.5040430779
