Al3 Ni3 Cu12 Nb6 
1.0
1.0185460595524754e+01 0.0000000000000000e+00 0.0000000000000000e+00 
1.3168432608847818e-04 5.6694547358701097e+00 0.0000000000000000e+00 
1.7116015152623479e-04 -1.9675613982333775e-02 5.7795770822177284e+00 
Al Ni Cu Nb 
3 3 12 6 
Cartesian
   1.6978080398    4.3309875872    4.2865273754
   5.0929581765    4.3309875872    4.2865273754
   8.4881083132    4.3309875872    4.2865273754
   3.3953063596    2.9058547613    2.9881280452
  10.1856168184    2.9058547613    2.9881280452
   6.7904666817    2.9058547613    2.9881280452
   3.3952375857    0.0311859405    2.9206399236
   1.6976587096    1.3598317288    1.5816043869
   3.3953212187    0.0313122230    5.7370625132
   1.6977359692    1.3364660579    4.2017640979
   5.0928088463    1.3598317288    1.5816043869
  10.1855480446    0.0311860539    2.9206399236
   5.0928861059    1.3364660579    4.2017640979
   0.0001715170    0.0313123363    5.7370625132
   6.7903979079    0.0311860539    2.9206399236
   8.4879589830    1.3598317288    1.5816043869
   6.7904815409    0.0313119395    5.7370625132
   8.4880362425    1.3364660579    4.2017640979
   3.3953841017    2.7022604671    5.7655153712
   1.6977200606    4.2120893562    1.4166436978
   0.0002344389    2.7022604671    5.7655153712
   5.0928701973    4.2120893562    1.4166436978
   6.7905444238    2.7022604671    5.7655153712
   8.4880203340    4.2120893562    1.4166436978
