Ni3 Nb1 
1.0
3.6873751920200850e+00 0.0000000000000000e+00 0.0000000000000000e+00 
9.8230666216608934e-09 3.6873751462505902e+00 0.0000000000000000e+00 
5.9534412753993695e-09 6.1022965699590030e-09 3.6873751414767733e+00 
Ni Nb 
3 1 
Cartesian
   3.6873751999    1.8436875762    1.8436875707
   1.8437023504    1.8437023226    0.0000000001
   1.8436875990    0.0000000037    1.8436875707
   3.6873493962    3.6873751524    3.6873751415
