Ni4 Zr16 Ta12 
1.0
9.5818997960297594e+00 0.0000000000000000e+00 0.0000000000000000e+00 
9.0607414331215589e-08 7.0051938588994496e+00 0.0000000000000000e+00 
-6.0299371363821825e-08 -1.8139070930420674e-08 9.3353207153076987e+00 
Ni Zr Ta 
4 16 12 
Cartesian
   4.7568191901    3.8120513591    4.6703115887
   4.7568191897    4.9444409419    6.9988393054
   7.2205556079    4.9444409464    4.6703115887
   7.2205555782    3.8120513546    6.9988393054
   0.0325765514    1.8458615720    2.3812816140
   2.3628965637    6.9106307424    2.3812816140
   4.8200213870    1.7796484788    2.7922411026
   7.1691103838    3.4611191721    2.3378910433
   7.1573534352    6.9768438339    2.7922411026
   4.8082644443    5.2953731425    2.3378910433
   2.3628964536    1.8458615586    9.2878692801
   2.5095666231    1.8332031822    4.7194620523
   2.5095666745    6.9232891188    6.9496888418
   0.0325764765    6.9106307290    9.2878692801
   4.8200214149    6.9768438221    8.8769097916
   9.4678080940    1.8332031778    6.9496888418
   9.4678081742    6.9232891231    4.7194620523
   7.1573533287    1.7796484670    8.8769097916
   4.8082643754    3.4611191585    9.3312598508
   7.1691103623    5.2953731289    9.3312598508
   2.3845037056    3.6290056481    2.3330926885
   2.3845037401    5.1274866710    0.0007387422
   0.0109697934    5.1274866665    2.3330926885
   0.0109696933    3.6290056526    0.0007387571
   2.4046065357    5.1297983759    4.6731215203
   2.4046065012    3.6266939251    6.9960293739
   9.5727682622    3.6266939296    4.6731215203
   4.8761329712    2.0873866375    6.6638413215
   4.8761330411    6.6691056634    5.0053095726
   7.1012417525    2.0873866408    5.0053095726
   7.1012418011    6.6691056602    6.6638413215
   9.5727682667    5.1297983714    6.9960293739
