Ni3 Cu3 Zr9 Nb3 W6 
1.0
1.0096827092085467e+01 0.0000000000000000e+00 0.0000000000000000e+00 
6.7777810615762135e-05 7.0876377446484167e+00 0.0000000000000000e+00 
1.4055479476875975e-06 1.5049822310476491e+00 6.0242124095331979e+00 
Ni Cu Zr Nb W 
3 3 9 3 6 
Cartesian
   1.6828541137    5.7708284647    4.1530317930
   5.0484597788    5.7708284647    4.1530317930
   8.4140654439    5.7708284647    4.1530317930
   3.3656111812    0.7309229086    0.6835854547
   0.0000055530    0.7309229086    0.6835854547
   6.7312269431    0.7309229086    0.6835854547
   1.6828249409    2.8499790379    4.7288501120
   5.0484306060    2.8499790379    4.7288501120
   8.4140362710    2.8499790379    4.7288501120
   1.6828603583    5.6505255956    0.7225681332
   3.3656713811    7.6417065672    3.4143308189
  10.0968928081    7.6417065672    3.4143308189
   5.0484660234    5.6505255956    0.7225681332
   8.4140716885    5.6505255956    0.7225681332
   6.7312871430    7.6417065672    3.4143308189
   3.3656408762    4.3176532440    2.8194217708
   0.0000353179    4.3176532440    2.8194217708
   6.7312566381    4.3176532440    2.8194217708
   1.6828278845    2.4690987054    1.6737009095
   5.0484335496    2.4690987054    1.6737009095
   8.4140392147    2.4690987054    1.6737009095
   3.3656401817    4.9397688358    5.9013546217
  10.0968616087    4.9397688358    5.9013546217
   6.7312559436    4.9397688358    5.9013546217
