Ni3 Cu9 Zr3 Ta3 W6 
1.0
8.4215568566207697e+00 0.0000000000000000e+00 0.0000000000000000e+00 
-7.0216045283103961e-05 4.7765859900032117e+00 0.0000000000000000e+00 
-1.8080944495617898e-04 1.4394958467698291e-02 8.8897180876433133e+00 
Ni Cu Zr Ta W 
3 9 3 3 6 
Cartesian
   0.1678356112    0.2830062931    4.3611712377
   2.6391642090    0.2830067707    4.3611712377
   1.4033923545    4.5074262102    6.7438023693
   0.1647490274    0.6042850749    0.0702900231
   1.4035299574    1.2773895730    2.3076908081
   2.6424131623    0.6042850779    0.0702918899
   5.6142821982    3.3867231238    2.0704420118
   4.1718612926    2.6916838329    8.8855932585
   1.4034619993    2.8434976744    4.5196215729
   0.2067638075    2.1400643818    6.7704537441
   2.6000877349    2.1400643818    6.7704537441
   7.0564382118    2.6916838329    8.8855932585
   5.6142853107    0.0737109989    4.3145002178
   3.9160135529    4.6008264125    6.7165376039
   7.3123179529    4.6008264125    6.7165376039
   3.9761876702    2.4698863447    4.4245460380
   7.2523080323    2.4698863447    4.4245460380
   5.6142065727    2.2017698277    6.6504425500
   1.4035485770    3.0319437635    0.1215784515
   2.8401650596    3.6313581396    2.1779720418
   4.2287836244    1.1356509250    2.0845944430
   8.3883877754    3.6313581396    2.1779720418
   6.9998379571    1.1356509250    2.0845944430
   5.6143685981    0.2648250557    0.0764881123
