Ni2
1.0
   2.4480229800000002    0.0000000000000000    0.0000000000000000
  -1.2240114900000001    2.1200499000000002   -0.0000000000000000
   0.0000000000000000    0.0000000000000000    4.0728075700000002
Ni
2
direct
   0.3333330000000000    0.6666670000000000    0.2500000000000000 Ni
   0.6666670000000000    0.3333330000000000    0.7500000000000000 Ni
