Nb4 Al4 Ni4
1.0
  -2.4201160000000002   -4.2988489999999997    0.0000000000000000
  -4.9338160000000002    0.0540039999999990    0.0000000000000000
   0.0000000000000000    0.0000000000000000   -7.9943159999999995
Nb Al Ni
4 4 4
direct
   0.3338330000000000    0.3338410000000000    0.5511760000000000 Nb
   0.6627210000000000    0.6627330000000000    0.4288940000000000 Nb
   0.6627210000000000    0.6627330000000000    0.0711060000000000 Nb
   0.3338330000000000    0.3338410000000000    0.9488240000000000 Nb
   0.9923569999999990    0.9924430000000000    0.4874429999999990 Al
   0.9923569999999990    0.9924430000000000    0.0125569999999990 Al
   0.8344590000000000    0.3502830000000000    0.7500000000000000 Al
   0.3502840000000000    0.8344530000000000    0.7500000000000000 Al
   0.8386690000000000    0.8386490000000000    0.7500000000000000 Ni
   0.1742870000000000    0.6533629999999990    0.2500000000000000 Ni
   0.6534559999999990    0.1742090000000000    0.2500000000000000 Ni
   0.1710229999999990    0.1710110000000000    0.2500000000000000 Ni
