Ni4 Zr2 
1.0
4.9414136149926415e+00 0.0000000000000000e+00 0.0000000000000000e+00 
2.4707073819673400e+00 4.2793908591037431e+00 0.0000000000000000e+00 
2.4707072590252928e+00 1.4264627900782234e+00 4.0346483764044363e+00 
Ni Zr 
4 2 
Cartesian
   3.7059740705    2.1396398244    0.0000000763
   2.4707829014    2.8528155604    2.0172999803
   3.7061185236    0.7132521221    2.0172919110
   4.9415030735    2.8530552063    2.0173847079
   1.2354078875    0.7132402649    0.5043310471
   8.6475290795    4.9926305018    3.5303173294
