Converted from final.data
1.0
15.1730916317313316 0.0000000000000000 0.0000000000000000
0.1588062574377145 15.6374882773253141 0.0000000000000000
0.1288577901761242 -0.2863307923232003 33.0449422683366478
W Ni Zr Nb Ta
3 13 7 3 36
Direct
0.3294797953593340 0.1414721155321470 0.4315510484121191
0.1265849181692849 0.3253212926182180 0.2266213156412337
0.0821341320906863 0.2906605074061235 0.1442549670780956
0.3984246661485061 0.1729600701238746 0.0789483051724294
0.9191478422188574 0.4600566950963457 0.1464912142638496
-0.0336282861387098 0.3999515784017904 0.0321622605137129
-0.0202224666190679 0.1196748007008440 0.3774402379178587
0.4172625215281203 0.0566913658182547 0.3007342329225999
0.3039163813762981 0.1206998616131992 0.3451663571864815
-0.0248483691832753 0.1553067769805841 0.4626676795707945
0.2163221467009865 0.4691638498157517 0.3958947672879002
0.2495241870118305 0.2424697022032118 0.3807756153770290
0.1229408304972536 0.1442201859886715 0.0339769889793953
0.2643188506465912 0.0661996755960860 0.0062377223284206
0.2768185974180089 0.2345328063688262 0.2291210505332058
0.7628080164555038 0.3485297947508226 0.1286304997310883
0.3203059357336743 0.7611224020451705 0.4349736074746808
0.0136226892117822 0.2174111925138963 -0.0278543550509215
0.3493624256476610 0.1276067989693845 0.1694719741446914
0.4416960076905409 0.3156606605467440 0.4261774150839666
-0.0365278035255039 0.1044204444738493 0.2901203120818467
0.6734347610839101 0.8892113808346849 0.3572855385462440
0.7518529187921917 0.4872591262354732 0.1677999371046880
0.2573535207236237 0.2883316487894244 0.1552636167666988
0.9046067862002192 0.1062714889512919 0.1366789818481789
0.5951729701853045 0.3582492000935348 0.1035116618797252
0.4493547817485799 0.0648520337379146 0.0204338070128968
0.6351767549246546 0.0820752069430405 0.0009172170084790
0.3554588599736563 0.2196246027245621 0.2961952526602943
0.2546483894533606 0.3204448936774027 0.4487593874788366
0.1672605119576451 0.7877711122235391 0.1992003658641976
0.1578333384224937 0.9360625854411618 0.3665132865640692
0.2592428853567915 0.4345110051162486 0.2229533844095604
0.9875141826852134 0.2746569524369571 0.4189515588521617
0.1279905237470192 0.0768191745343576 0.3463670346245787
0.4197131070392455 0.0062798265165902 0.3782931023427061
0.1925968624747294 0.3411343547832119 0.3047454043575309
0.1165717484715789 0.3591509940244679 0.4009643868276165
0.0458871370561364 -0.0092447084684026 0.4241801221825583
0.3434282982266746 0.3390712279537767 0.3562141616227142
0.0140239480859039 0.0639715855320320 0.1952519472013263
0.0265816400027869 0.4308266394979456 0.1113884042113163
-0.0304771707630007 0.2319870205210993 0.2100305227140535
0.5511448688367145 0.2248828411468282 0.0414781801902053
0.2645797073814731 0.4752999110143580 0.0842667976431486
0.1676950960791274 0.1544844112901721 0.1866955077368125
0.2342621266252375 0.1239231434358342 0.0883080290997526
0.1133675867066858 -0.0262905980297160 0.2590530764427031
0.2846730446354027 0.0815749596911661 0.2517079966255889
0.3865881006698476 0.3233322449726368 0.0798291600023809
0.1461249756765712 0.4609798254848105 0.0254455337696506
0.0526731174372265 0.1406083233550312 0.1117009648982799
0.3235993047965104 0.4616089662918329 0.0051604469086548
0.1717694967094725 0.4511595151210906 0.1560307909673187
0.3298365898863225 0.2324036885202478 0.0066694499710747
0.4035600673092177 0.3887443655088498 0.1507032447621444
0.2188673071735611 0.0058550386119498 0.1487308178472269
0.1828708546640273 0.2882601602061557 0.0634379420692736
-0.0150638877077861 0.3243955932142736 0.2765393049405330
0.2147450730012160 -0.0066211968180532 0.4905887906797903
0.0064829871065911 0.9867018129182979 0.3269330727300898
0.0911384236428885 0.2922023409542477 0.4808985749978351
