Al1 Ni2 Nb1 
1.0
4.2338643956214712e+00 0.0000000000000000e+00 0.0000000000000000e+00 
2.1169356560150909e+00 3.6666408290485091e+00 0.0000000000000000e+00 
2.1169312093493207e+00 1.2222106966707209e+00 3.4569346357463835e+00 
Al Ni Nb 
1 2 1 
Cartesian
   4.2339706318    4.8887305266    3.4569346357
   2.1169920894    1.2222495478    0.8642336589
   6.3508577199    3.6666753107    2.5927009768
   4.2339291385    2.4444624293    1.7284673179
