Al8 Ni4 Cu4 Zr8 Ta4 W4 
1.0
9.4321090117479383e+00 0.0000000000000000e+00 0.0000000000000000e+00 
-4.0415149345475716e-05 9.2570175042700544e+00 0.0000000000000000e+00 
1.3523122623880751e-05 -3.8778106419204124e-05 6.1627135070875987e+00 
Al Ni Cu Zr Ta W 
8 4 4 8 4 4 
Cartesian
   2.5011086959    2.3925585163    3.0965848186
   9.2890141491    2.3925490134    4.6068070652
   2.2577374845    4.6835226276    1.5632523963
   0.1002686063    4.6834938281    6.1401394875
   0.1002498829    6.8877295796    1.5632523963
   2.2577379045    6.8877007801    6.1401394875
   2.5010823824    9.1786648914    4.6068070652
   9.2889906398    9.1786743943    3.0965848186
   4.7662356660    2.3164118545    1.3768549636
   7.0238743209    2.3164194873    0.1638234132
   4.7662121438    9.2548503313    0.1638240294
   7.0238561224    9.2548426985    1.3768549636
   4.9845826528    0.2233525237    2.9214713143
   6.8055563295    2.0908641607    2.9214713143
   4.9845785819    2.0908524541    4.7819205695
   6.8055685653    0.2233408170    4.7819205695
   4.6424055206    4.4077928884    3.0686985400
   2.5329678121    2.3435975370    6.1364172086
   9.2571554602    2.3436262896    1.5669746753
   7.1477091599    4.4077830346    4.6346933439
   2.5329277304    9.2276258707    1.5669746753
   4.6424063581    7.1634305193    4.6346933439
   9.2571448645    9.2275971181    6.1364172086
   7.1476842606    7.1634403731    3.0686985400
   4.6605737392    4.5808905567    0.0154812910
   7.1295259070    4.5808718000    1.5251976404
   4.6605665324    6.9903808861    1.5251976404
   7.1295120745    6.9903903858    0.0154811677
   0.0468216911    4.6916404874    3.1209398624
   2.3111769717    4.6916405481    4.5824520215
   2.3111642124    6.8795828596    3.1209398624
   0.0468181755    6.8795736632    4.5824581842
