bcc_Al3_Cu3_Nb3_Ni0_Ta9_W0_Zr6          
   1.00000000000000     
    10.5355516888318785    0.0000000000000000    0.0000000000000000
     0.0000000000000000    6.3166357914500120    0.0068568845089097
     0.0000000000000000    0.0048164864745319    6.6342917141838837
   Al   Cu   Nb   Ta   Zr
     3     3     3     9     6
Direct
 -0.0000000000000000  0.4997090311162966  0.4767704205753087
  0.3333333333333357  0.4997090311162966  0.4767704205753087
  0.6666666666666643  0.4997090311162966  0.4767704205753087
  0.1666666666666643  0.2436346048330834  0.2626816919480189
  0.5000000000000000  0.2436346048330834  0.2626816919480189
  0.8333333333333357  0.2436346048330834  0.2626816919480189
  0.1666666666666643  0.7568368152894595  0.7503493917149591
  0.5000000000000000  0.7568368152894595  0.7503493917149591
  0.8333333333333357  0.7568368152894595  0.7503493917149591
 -0.0000000000000000 -0.0099812737233002  0.4969545636474711
  0.3333333333333357 -0.0099812737233002  0.4969545636474711
  0.6666666666666643 -0.0099812737233002  0.4969545636474711
  0.1666666666666643  0.7637186337772731  0.2569208145161845
  0.5000000000000000  0.7637186337772731  0.2569208145161845
  0.8333333333333357  0.7637186337772731  0.2569208145161845
 -0.0000000000000000 -0.0020105920615241  0.0045421192736233
  0.3333333333333357 -0.0020105920615241  0.0045421192736233
  0.6666666666666643 -0.0020105920615241  0.0045421192736233
  0.1666666666666643  0.2463164330509418  0.7359160784805096
  0.5000000000000000  0.2463164330509418  0.7359160784805096
  0.8333333333333357  0.2463164330509418  0.7359160784805096
 -0.0000000000000000  0.5017763477177695  0.0158649198439243
  0.3333333333333357  0.5017763477177695  0.0158649198439243
  0.6666666666666643  0.5017763477177695  0.0158649198439243
 
  0.00000000E+00  0.00000000E+00  0.00000000E+00
  0.00000000E+00  0.00000000E+00  0.00000000E+00
  0.00000000E+00  0.00000000E+00  0.00000000E+00
  0.00000000E+00  0.00000000E+00  0.00000000E+00
  0.00000000E+00  0.00000000E+00  0.00000000E+00
  0.00000000E+00  0.00000000E+00  0.00000000E+00
  0.00000000E+00  0.00000000E+00  0.00000000E+00
  0.00000000E+00  0.00000000E+00  0.00000000E+00
  0.00000000E+00  0.00000000E+00  0.00000000E+00
  0.00000000E+00  0.00000000E+00  0.00000000E+00
  0.00000000E+00  0.00000000E+00  0.00000000E+00
  0.00000000E+00  0.00000000E+00  0.00000000E+00
  0.00000000E+00  0.00000000E+00  0.00000000E+00
  0.00000000E+00  0.00000000E+00  0.00000000E+00
  0.00000000E+00  0.00000000E+00  0.00000000E+00
  0.00000000E+00  0.00000000E+00  0.00000000E+00
  0.00000000E+00  0.00000000E+00  0.00000000E+00
  0.00000000E+00  0.00000000E+00  0.00000000E+00
  0.00000000E+00  0.00000000E+00  0.00000000E+00
  0.00000000E+00  0.00000000E+00  0.00000000E+00
  0.00000000E+00  0.00000000E+00  0.00000000E+00
  0.00000000E+00  0.00000000E+00  0.00000000E+00
  0.00000000E+00  0.00000000E+00  0.00000000E+00
  0.00000000E+00  0.00000000E+00  0.00000000E+00
