Ni3 Ta1 
1.0
3.6473831407120572e+00 0.0000000000000000e+00 0.0000000000000000e+00 
-6.6320880983022606e-07 3.6473971808507568e+00 0.0000000000000000e+00 
-1.8236287627380032e+00 -1.8236052886985825e+00 3.6566607424016926e+00 
Ni Ta 
3 1 
Cartesian
   0.0001864870    0.0003012034    3.6566607424
   1.8236790398    0.0000466509    1.8283303712
   0.0000272590    1.8236978251    1.8283303712
   3.6473532659    3.6473679692    0.0000000652
