Zr1 Al1 Cu2                             
   1.00000000000000     
     3.0098642900160915    0.0000000000000000    0.0000000000000000
     0.0000000000000000    3.0098642900160915    0.0000000000000000
     0.0000000000000000    0.0000000000000000    6.7626211242031120
   Zr   Al   Cu
     1     1     2
Direct
  0.5000000000000000  0.5000000000000000  0.7500000000000000
  0.5000000000000000  0.5000000000000000  0.2500000000000000
  0.0000000000000000  0.0000000000000000  0.0361068870898289
  0.0000000000000000  0.0000000000000000  0.4638931129101711
 
  0.00000000E+00  0.00000000E+00  0.00000000E+00
  0.00000000E+00  0.00000000E+00  0.00000000E+00
  0.00000000E+00  0.00000000E+00  0.00000000E+00
  0.00000000E+00  0.00000000E+00  0.00000000E+00
