Al4 Ni2 Cu4 
1.0
3.0220864053057443e+00 0.0000000000000000e+00 0.0000000000000000e+00 
5.4025250265195640e-16 3.0220864053057457e+00 0.0000000000000000e+00 
-2.7643569298675710e-16 2.6305977235836562e-16 1.4084060705935677e+01 
Al Ni Cu 
4 2 4 
Cartesian
   3.0220864053    3.0220864053    2.7009848259
   3.0220864053    3.0220864053    5.6465675342
   3.0220864053    3.0220864053   13.9991760721
   3.0220864053    3.0220864053    8.6122622811
   1.5110432027    1.5110432027    1.3517416692
   3.0220864053    3.0220864053   11.2738539892
   1.5110432027    1.5110432027    4.1726564972
   1.5110432027    1.5110432027    7.1237319891
   1.5110432027    1.5110432027    9.9740219426
   1.5110432027    1.5110432027   12.6073328569
