Al3 Cu1                                 
   1.00000000000000     
    -1.9861047401449983   -1.9861047401449983    0.0000000000000000
    -1.9861047401449983    1.9861047401449983    0.0000000000000000
    -0.0000000000000000   -0.0000000000000000   -7.6441640599927529
   Al   Cu
     3     1
Direct
  0.0000000000000000 -0.0000000000000000  0.5000000000000000
  0.5000000000000000  0.5000000000000000  0.7754316598376048
  0.5000000000000000  0.5000000000000000  0.2245683401623952
  0.0000000000000000  0.0000000000000000  0.0000000000000000
 
  0.00000000E+00  0.00000000E+00  0.00000000E+00
  0.00000000E+00  0.00000000E+00  0.00000000E+00
  0.00000000E+00  0.00000000E+00  0.00000000E+00
  0.00000000E+00  0.00000000E+00  0.00000000E+00
