Nb1 W1 
1.0
2.7845737308785976e+00 0.0000000000000000e+00 0.0000000000000000e+00 
-9.2704932215176383e-01 2.6250453004982832e+00 0.0000000000000000e+00 
6.5107141855381824e-10 1.9546590591077474e-10 4.5678761860359520e+00 
Nb W 
1 1 
Cartesian
  -0.0000000019    0.0000000071    0.0000000047
   0.9287622047    1.3125226503    2.2839380930
