fcc_Al0_Cu8_Nb4_Ni0_Ta0_W12_Zr8         
   1.00000000000000     
     9.1995751656082128    0.0000000000000000    0.0000000000000000
     0.0000000000000000    6.4563715039356024    0.0000000000000000
     0.0000000000000000    0.0000000000000000    9.1998433224578680
   Cu   Nb   W    Zr
     8     4    12     8
Direct
 -0.0140343334911770 -0.0133017327390720  0.4702004427477789
  0.2640343334911769  0.2633017327390721  0.4702004427477789
 -0.0140343334911770  0.2633017327390721  0.7797995572522211
  0.2640343334911769 -0.0133017327390720  0.7797995572522211
  0.0119641830572758  0.5021233132674755  0.0086347119465203
  0.2380358169427241  0.7478766867325247  0.0086347119465203
  0.0119641830572758  0.7478766867325247  0.2413652880534796
  0.2380358169427241  0.5021233132674755  0.2413652880534796
  0.5027163479776540  0.0058752716431549  0.5002213932679110
  0.7472836520223460  0.2441247283568450  0.5002213932679110
  0.5027163479776540  0.2441247283568450  0.7497786067320890
  0.7472836520223459  0.0058752716431549  0.7497786067320890
  0.5011110844843769  0.5027112868759940  0.5054108464912518
  0.7488889155156231  0.7472887131240061  0.5054108464912518
  0.5011110844843769  0.7472887131240061  0.7445891535087484
  0.7488889155156231  0.5027112868759940  0.7445891535087484
  0.0010235269631820  0.0204912616822246  0.0106410122185112
  0.2489764730368179  0.2295087383177754  0.0106410122185112
  0.0010235269631820  0.2295087383177754  0.2393589877814888
  0.2489764730368179  0.0204912616822246  0.2393589877814888
  0.4953630764390407  0.0042234680707493 -0.0037409778719418
  0.7546369235609598  0.2457765319292506 -0.0037409778719418
  0.4953630764390407  0.2457765319292506  0.2537409778719418
  0.7546369235609598  0.0042234680707493  0.2537409778719418
  0.0048599570951588  0.4689319272231908  0.5017718830632605
  0.2451400429048412  0.7810680727768093  0.5017718830632605
  0.0048599570951588  0.7810680727768093  0.7482281169367399
  0.2451400429048412  0.4689319272231908  0.7482281169367399
  0.4911462226799906  0.4957305057396054 -0.0041678875413196
  0.7588537773200096  0.7542694942603942 -0.0041678875413196
  0.4911462226799906  0.7542694942603942  0.2541678875413197
  0.7588537773200096  0.4957305057396054  0.2541678875413197
 
  0.00000000E+00  0.00000000E+00  0.00000000E+00
  0.00000000E+00  0.00000000E+00  0.00000000E+00
  0.00000000E+00  0.00000000E+00  0.00000000E+00
  0.00000000E+00  0.00000000E+00  0.00000000E+00
  0.00000000E+00  0.00000000E+00  0.00000000E+00
  0.00000000E+00  0.00000000E+00  0.00000000E+00
  0.00000000E+00  0.00000000E+00  0.00000000E+00
  0.00000000E+00  0.00000000E+00  0.00000000E+00
  0.00000000E+00  0.00000000E+00  0.00000000E+00
  0.00000000E+00  0.00000000E+00  0.00000000E+00
  0.00000000E+00  0.00000000E+00  0.00000000E+00
  0.00000000E+00  0.00000000E+00  0.00000000E+00
  0.00000000E+00  0.00000000E+00  0.00000000E+00
  0.00000000E+00  0.00000000E+00  0.00000000E+00
  0.00000000E+00  0.00000000E+00  0.00000000E+00
  0.00000000E+00  0.00000000E+00  0.00000000E+00
  0.00000000E+00  0.00000000E+00  0.00000000E+00
  0.00000000E+00  0.00000000E+00  0.00000000E+00
  0.00000000E+00  0.00000000E+00  0.00000000E+00
  0.00000000E+00  0.00000000E+00  0.00000000E+00
  0.00000000E+00  0.00000000E+00  0.00000000E+00
  0.00000000E+00  0.00000000E+00  0.00000000E+00
  0.00000000E+00  0.00000000E+00  0.00000000E+00
  0.00000000E+00  0.00000000E+00  0.00000000E+00
  0.00000000E+00  0.00000000E+00  0.00000000E+00
  0.00000000E+00  0.00000000E+00  0.00000000E+00
  0.00000000E+00  0.00000000E+00  0.00000000E+00
  0.00000000E+00  0.00000000E+00  0.00000000E+00
  0.00000000E+00  0.00000000E+00  0.00000000E+00
  0.00000000E+00  0.00000000E+00  0.00000000E+00
  0.00000000E+00  0.00000000E+00  0.00000000E+00
  0.00000000E+00  0.00000000E+00  0.00000000E+00
