fcc_Al4_Cu0_Nb12_Ni4_Ta8_W4_Zr0         
   1.00000000000000     
     9.1748224350931391    0.0000000000000000    0.0000000000000000
     0.0000000000000000    6.3675048981812497    0.0000000000000000
     0.0000000000000000    0.0000000000000000    9.2189465474696313
   Al   Nb   Ni   Ta   W 
     4    12     4     8     4
Direct
 -0.0012009773747572  0.4971865209087841  0.0008787862947217
  0.2512009773747573  0.7528134790912160  0.0008787862947217
 -0.0012009773747572  0.7528134790912160  0.2491212137052783
  0.2512009773747573  0.4971865209087841  0.2491212137052783
 -0.0028048692597762  0.0072688398206396 -0.0040084950112224
  0.2528048692597761  0.2427311601793606 -0.0040084950112224
 -0.0028048692597762  0.2427311601793606  0.2540084950112225
  0.2528048692597761  0.0072688398206396  0.2540084950112225
  0.5017848088949001 -0.0019092429510930 -0.0074685478631719
  0.7482151911050999  0.2519092429510930 -0.0074685478631719
  0.5017848088949001  0.2519092429510930  0.2574685478631719
  0.7482151911050999 -0.0019092429510930  0.2574685478631719
 -0.0072504196550128  0.5012732326537673  0.5005471105908764
  0.2572504196550127  0.7487267673462327  0.5005471105908764
 -0.0072504196550127  0.7487267673462327  0.7494528894091236
  0.2572504196550127  0.5012732326537673  0.7494528894091236
  0.5020663148116762 -0.0020766263697841  0.5048504120420531
  0.7479336851883240  0.2520766263697841  0.5048504120420531
  0.5020663148116762  0.2520766263697841  0.7451495879579467
  0.7479336851883240 -0.0020766263697841  0.7451495879579467
  0.5019230905866089  0.4975267629027455 -0.0061348376871782
  0.7480769094133910  0.7524732370972546 -0.0061348376871782
  0.5019230905866089  0.7524732370972546  0.2561348376871782
  0.7480769094133910  0.4975267629027455  0.2561348376871782
 -0.0050340826427243 -0.0048571671214459  0.5027497477588674
  0.2550340826427244  0.2548571671214459  0.5027497477588674
 -0.0050340826427243  0.2548571671214459  0.7472502522411326
  0.2550340826427244 -0.0048571671214459  0.7472502522411326
  0.5081032618640901  0.4932541424493227  0.5064265304982862
  0.7418967381359099  0.7567458575506775  0.5064265304982862
  0.5081032618640901  0.7567458575506775  0.7435734695017138
  0.7418967381359099  0.4932541424493227  0.7435734695017138
 
  0.00000000E+00  0.00000000E+00  0.00000000E+00
  0.00000000E+00  0.00000000E+00  0.00000000E+00
  0.00000000E+00  0.00000000E+00  0.00000000E+00
  0.00000000E+00  0.00000000E+00  0.00000000E+00
  0.00000000E+00  0.00000000E+00  0.00000000E+00
  0.00000000E+00  0.00000000E+00  0.00000000E+00
  0.00000000E+00  0.00000000E+00  0.00000000E+00
  0.00000000E+00  0.00000000E+00  0.00000000E+00
  0.00000000E+00  0.00000000E+00  0.00000000E+00
  0.00000000E+00  0.00000000E+00  0.00000000E+00
  0.00000000E+00  0.00000000E+00  0.00000000E+00
  0.00000000E+00  0.00000000E+00  0.00000000E+00
  0.00000000E+00  0.00000000E+00  0.00000000E+00
  0.00000000E+00  0.00000000E+00  0.00000000E+00
  0.00000000E+00  0.00000000E+00  0.00000000E+00
  0.00000000E+00  0.00000000E+00  0.00000000E+00
  0.00000000E+00  0.00000000E+00  0.00000000E+00
  0.00000000E+00  0.00000000E+00  0.00000000E+00
  0.00000000E+00  0.00000000E+00  0.00000000E+00
  0.00000000E+00  0.00000000E+00  0.00000000E+00
  0.00000000E+00  0.00000000E+00  0.00000000E+00
  0.00000000E+00  0.00000000E+00  0.00000000E+00
  0.00000000E+00  0.00000000E+00  0.00000000E+00
  0.00000000E+00  0.00000000E+00  0.00000000E+00
  0.00000000E+00  0.00000000E+00  0.00000000E+00
  0.00000000E+00  0.00000000E+00  0.00000000E+00
  0.00000000E+00  0.00000000E+00  0.00000000E+00
  0.00000000E+00  0.00000000E+00  0.00000000E+00
  0.00000000E+00  0.00000000E+00  0.00000000E+00
  0.00000000E+00  0.00000000E+00  0.00000000E+00
  0.00000000E+00  0.00000000E+00  0.00000000E+00
  0.00000000E+00  0.00000000E+00  0.00000000E+00
