Al3 Ni3 Zr3 
1.0
6.6368838368687637e+00 0.0000000000000000e+00 0.0000000000000000e+00 
-3.3183032412417406e+00 5.7476303945407414e+00 0.0000000000000000e+00 
2.0695119003442636e-06 -8.5143945096032527e-07 3.7815952142600073e+00 
Al Ni Zr 
3 3 3 
Cartesian
   1.6270387034    0.0000000106    0.0000000278
   2.5048335151    4.3381611320    3.7815952143
  -0.8136844843    1.4094675597    3.7815952143
   0.0001189997    3.8317842504    0.0000000032
  -3.3172760779    5.7476299688    1.8907976071
   3.3185213278    1.9158461442    0.0000000118
   1.3634863323    2.3614824934    1.8907976071
  -1.9549354146    3.3861470497    1.8907976071
   0.5925479632    5.7476299688    1.8907976071
