Converted from final.data
1.0
14.7590460130593506 0.0000000000000000 0.0000000000000000
-0.0238091004555963 15.7085459880537375 0.0000000000000000
-0.1632084304590671 0.2580458168436970 30.3013880540906513
Zr W Ta Ni Cu
10 9 16 2 21
Direct
0.3470218255700218 0.0724382596760989 0.9825915271908517
0.0457644634134413 0.1656046837157406 0.0737509180940567
0.5153830974459659 0.1103992030493225 0.1616664846130334
0.0398098771182755 0.2030334411122157 0.5218619600951976
0.8131450558597491 0.8958980671033616 0.1588437864076082
0.4540462634350718 0.8787014581334593 0.9559097770662348
0.8353625794529012 -0.0176954108716387 0.0039027795860254
0.6024994272054094 0.3232888244889921 0.9842134342104896
0.5318438897303626 0.0386333789045283 0.3446406488221943
0.6403923749950196 0.3990847016956895 0.1213302274546579
0.0133692127760601 0.3577465214925886 0.1209073023063561
0.1575925291352083 0.2888544949956115 0.1272673598471534
0.4341610221123611 0.8758239233176744 0.3702389757880858
0.0667085244917275 0.0675374560892146 0.2316163043268093
0.3834319105824082 0.1865819837983517 0.8874954386090541
0.1886900688680202 0.1797123989104583 0.2222688287779398
0.0146077745247661 -0.0055250540103812 0.3649339582878110
0.2242431364585582 -0.0156124768119356 0.2671318109788403
0.8472446102846832 0.7595368221673844 0.3335516206699963
0.4827724790936117 0.9026060347714869 0.1875204342138939
0.3198087751159985 0.2216219988039989 0.1391010414472736
-0.0297859257310608 0.9627161251588876 0.9862890646511838
0.9138197616265565 0.0530358380741910 0.0903870932367277
0.8946557796557411 0.1964071266711449 0.0116471167456304
0.1761092390615744 0.8625297662442306 0.1420869238438861
0.1615877240613001 0.8295840200131166 0.2579796871528494
0.1025564226323964 0.1157656056526517 0.3114579802239805
0.2307982417559576 0.0364990586126763 0.3705766719636158
0.1657862066220212 0.7527600764992876 0.4237541777335637
0.5134296521858015 0.1604581763236596 0.2664581348438322
0.1267137361494843 0.4171016410291693 0.0482518792912698
0.2100043337659158 0.9980059893752484 0.0839448315611890
0.1422435739202555 0.4840641600878102 0.1335247022482432
0.1671242289766311 0.9129053232634750 0.3456609484735795
0.3497532758155600 0.1059591744549757 0.2074341861180813
-0.0039803538934451 0.0655382418526381 0.1505471189237037
0.0482469361162037 0.2139172103779722 0.2468359731311945
0.9027372991139563 0.0034788574612411 0.1686918827030382
0.9952675130230012 0.2547993914321749 0.9929209970231594
0.0752505537805645 0.8402527510178596 0.0697051187813625
0.4170589505899936 0.8473985743994590 0.0007474945212403
0.4341420905443817 0.5227013637951942 0.3987663272212918
0.0659163486699204 0.2548163843759886 0.3643641738059967
0.4202915977524692 0.3822212681152446 0.9718908239429156
0.2083771413517509 0.1497605321741319 -0.0242234849896006
0.6798524346125171 -0.0181643211639415 0.9748949433629616
0.4027768116915779 0.1375308241979089 0.0150496041139760
0.0711711678969126 0.9590474530381903 0.0123542561074681
0.0332368979388582 0.1681407633898616 -0.0135130745209023
0.2757992264715363 0.0260990623857238 0.0149572231920721
0.5458629429171885 0.6059809258173805 0.2052562873565498
0.9651532969632648 0.9240617512819321 0.2117474179078359
0.6514929925206986 0.2185367130865094 0.1141313382320730
0.4425679104660226 0.2203543463800555 0.0814747550509727
0.6478107947547476 0.0701991304012978 0.0001868389818759
0.8680728494236776 0.8038835464575800 0.4290618033646780
0.8208993714455101 0.8390139701144904 0.2434390144007650
0.5297737041628655 0.1450074364579159 -0.0314151119158235
