Ta2 Al2 Ni12
1.0
   2.5361756999999998   -4.3927857799999996   -0.0000000000000000
   2.5361756999999998    4.3927857799999996    0.0000000000000000
   0.0000000000000000   -0.0000000000000000    8.2177052899999996
Ta Al Ni
2 2 12
direct
  -0.0000000000000000   -0.0000000000000000    0.0000000000000000 Ta
  -0.0000000000000000   -0.0000000000000000    0.5000000000000000 Ta
   0.3333330000000000    0.6666670000000000    0.7500000000000000 Al
   0.6666670000000000    0.3333330000000000    0.2500000000000000 Al
   0.8264578700000000    0.6529157400000000    0.7500000000000000 Ni
   0.3470842600000000    0.1735421300000000    0.7500000000000000 Ni
   0.8264578700000000    0.1735421300000000    0.7500000000000000 Ni
   0.1735421300000000    0.3470842600000000    0.2500000000000000 Ni
   0.6529157400000000    0.8264578700000000    0.2500000000000000 Ni
   0.1735421300000000    0.8264578700000000    0.2500000000000000 Ni
   0.5000000000000000    0.5000000000000000    0.0000000000000000 Ni
   0.5000000000000000   -0.0000000000000000    0.0000000000000000 Ni
  -0.0000000000000000    0.5000000000000000    0.0000000000000000 Ni
   0.5000000000000000    0.5000000000000000    0.5000000000000000 Ni
   0.5000000000000000   -0.0000000000000000    0.5000000000000000 Ni
  -0.0000000000000000    0.5000000000000000    0.5000000000000000 Ni
