Converted from final.data
1.0
15.7652626418688424 0.0000000000000000 0.0000000000000000
0.1777892080063506 16.4448272175272407 0.0000000000000000
0.5308599678902730 -0.0169190630082872 32.1256165186810350
Al W Ni Zr Ta
12 24 7 11 7
Direct
0.8313830253941989 0.5811435235803342 0.1985456463008620
0.5698217268076721 0.6591001018625363 0.0830945994961810
0.5766611276219249 0.4027593065785103 0.0516309291684092
0.4003803305838986 0.5848139675832531 0.0692681908577231
0.4147709214456221 0.4692363711710444 -0.0003965543006452
0.4467043402410470 0.0541236091737189 0.1333167821680497
0.5444851570483115 0.3143667077223513 0.2246279783290427
0.4815224510835608 0.4799224546093501 0.2167842033982409
0.6250765418235043 0.6836634204707667 0.2180290956560041
0.7122093585309069 0.9035223005906367 0.4457907704315852
0.7464884989864972 0.3623540637691569 0.1073129927866632
0.6400938453708395 0.4858697764067390 0.1091711034756600
0.7404203923177562 0.2176982180126675 0.3281142956286092
0.3345882520698512 0.2669259213319668 0.4323607539391566
0.5668466812765690 0.4289844280220851 0.2854195294387408
0.3946748460917674 0.3212776742504411 0.0289700088118228
0.6621886802037031 0.2277962234855697 0.0847243914456029
0.5452716195760358 0.2744586225224425 0.4115693794917747
0.7022368591003161 0.0125076164036456 0.3776773735407756
0.6439823530331089 0.3521605909644236 0.3631417567258761
0.4264685248965733 0.5507649005887034 0.3119974974779308
0.4928729489091051 0.0744703203422789 0.3805726108539986
0.7983721091825584 0.4151760743295243 0.3852653238137901
0.6202868437131656 0.1424043532030263 0.3503411690093681
0.3841055651798508 0.9762094636611015 0.3570021614789585
0.5569382966149881 0.2682154024648160 0.3142134688677504
0.4243909713073538 0.3559288862636370 0.2835182880542498
0.4757238265191897 0.4047715814749184 0.3688061879631846
0.3887072055635674 0.2419313730217082 0.3530731039026116
0.3169865369210197 0.3814784948174386 0.3510978783756274
0.6891856853375160 0.3353191820137859 0.2634241767266000
0.8930900470938127 0.4782353159720346 0.9656515065919111
0.1385032636418106 0.2840302865395201 0.9651489315159056
0.3070804928996433 0.3547611266293925 0.9821380908688012
0.8900952445543798 0.2868934702880575 0.3665608334802956
0.9601056530245551 0.2007007130328849 0.2076982334419275
0.4341383789414887 0.7572713341311782 0.0696007236454641
0.5018412768148556 0.5323013563416893 0.1122960667847173
0.4107057585788083 0.6423847398868175 0.1404637313506151
0.5127604481946673 0.2692616638967569 0.0815452991668160
0.4509221177720383 0.4331616455317031 0.0755959968233602
0.5358940374733492 0.5474770553333097 0.0341632944748593
0.6357915498804482 0.4691556566699007 0.9976763883958656
0.5764272384636455 0.1176653026565343 0.9720714491640056
0.5181491147387282 0.2038294794386256 0.1624942817010208
0.3298284562551000 0.5351131031072148 0.1741248094331671
0.5732016194122352 0.3695268444992921 0.1481396702607178
0.4281520834720016 0.6896493645701375 -0.0029452392640863
0.2109524574358581 0.3809160387125095 0.1679247288656870
0.7082096389759471 0.2335802214944441 0.1747925974897286
0.6157626468232660 0.1300407704337350 0.2511644332044931
0.2307525002300277 0.1529442083832226 0.2873560271079447
0.4576246273163144 0.3510903349029207 0.4761048937153919
0.2574975798693440 0.4549830325063358 0.2671952849180578
0.4163735106599294 0.1937442333253325 0.2532022360370266
0.3691658363249336 0.1774955154009489 0.0836110451667356
0.3310650790423932 0.9383218033732111 0.2715033502161924
0.6997710037807464 0.2489347690916959 0.4293529350285936
0.0715720386608264 0.2580836785831421 0.0637947792929139
0.2211847441867909 0.2563851711192773 0.1048137026832015
0.0587902879861033 0.6844082012773518 0.1238503308348969
