Ni9 Cu3 Ta4 
1.0
4.2435096193570461e+00 0.0000000000000000e+00 0.0000000000000000e+00 
-1.8346192960233198e-15 4.4638723736504220e+00 0.0000000000000000e+00 
-3.7155688060320667e-16 5.1491915281216781e-15 1.0558525647392544e+01 
Ni Cu Ta 
9 3 4 
Cartesian
   2.1217548097    0.7975957880    3.9973311078
   2.1217548097    0.7250310787    1.3369099589
   0.0000000000    3.7406759465    3.9873744181
   0.0000000000    3.6543134077    1.3523993161
   2.1217548097    3.0837278493    5.2792628237
   2.1217548097    0.7250310787    9.2216156884
   2.1217548097    0.7975957880    6.5611945396
   0.0000000000    3.6543134077    9.2061263313
   0.0000000000    3.7406759465    6.5711512293
   0.0000000000    1.3925942644    2.6438442636
   2.1217548097    2.9969858813    0.0000000000
   0.0000000000    1.3925942644    7.9146813838
   2.1217548097    3.0444725556    2.7829211634
   0.0000000000    1.3823675328    0.0000000000
   2.1217548097    3.0444725556    7.7756044840
   0.0000000000    1.5385494994    5.2792628237
