Cu2 Zr2 
1.0
4.2092757489561787e+00 0.0000000000000000e+00 0.0000000000000000e+00 
-6.9416005708438765e-08 3.2234315415544592e+00 0.0000000000000000e+00 
-7.6524733934507710e-09 1.6055225566967453e+00 5.1909383036787711e+00 
Cu Zr 
2 2 
Cartesian
   3.1569567423    4.0269370316    3.3320373424
   1.0523189296    0.8020173890    1.8589009612
   3.1569567649    2.4158418582    0.9976360507
   1.0523189070    2.4131154634    4.1933022530
