POSCAR file written by OVITO Basic 3.9.4
1
16.4838 0.0 0.0
0.2215458796 7.5271823937 0.0
-0.0260455098 0.1978467783 7.1185344881
Al W Ni Zr Nb Ta 
16 17 2 8 8 12 
Cartesian
0.2462554748 7.0961354536 0.0860027637
0.2266416238 7.1697455772 3.6227573633
0.1902103255 3.7468955423 3.5626073633
3.8187453255 3.7600455423 7.1002373633
1.8359253255 2.0119155423 7.1037473633
1.8982953255 5.5250755423 3.6347173633
1.9637053255 7.1254655423 1.7828673633
1.8682053255 3.6541655423 5.3993973633
5.6579153255 3.7890455423 5.3504073633
0.1755263255 5.5215855423 5.3315573633
3.9542253255 5.3269655423 1.8340473633
3.8963553255 5.4321155423 5.3241773633
14.4079809801 -0.1009465581 0.2043816076
13.0995609703 5.2052657609 7.1333137471
9.5671909703 6.5789423273 1.6834627328
12.5941509703 3.1292147011 1.4935215971
14.7710094503 3.3914930889 6.9914505431
14.3438509703 3.3834853507 3.7154802343
11.1813409703 -0.2580533659 0.0710108
11.0527909703 -0.086503251 3.6951440921
11.0639409703 3.374389279 3.6577632064
9.0924809703 1.3884102969 0.3312131111
9.2823209703 1.8270086959 3.3768971805
9.5557009703 5.3980605451 6.9337531068
13.1520309703 1.6092621189 7.0921712629
12.7641009703 1.6053980358 3.8276914622
9.2048009703 3.7137596203 1.74512748
9.7726409703 3.2093819455 5.5785784504
12.7108709703 6.7862448965 1.8695932907
13.3060209605 6.9801249423 5.4085424405
7.9455219703 5.0232344952 5.4210615107
10.9234109703 1.4202116014 1.7939988738
11.2213709703 5.4160230402 5.3245529977
5.7280885883 7.1541258772 1.7107173633
5.6842453255 3.5990655423 1.7171573633
0.1382083609 3.5724555423 0.0450839133
3.9599724748 7.1420985536 0.0486927637
3.6510453255 0.1346215423 3.4776373633
3.7451853255 3.7111555423 3.5230073633
5.6411853255 1.9969055423 7.0889273633
5.6680853255 5.6316255423 7.1086273633
5.7551153255 5.5037155423 3.5133673633
3.7338553255 1.8110155423 1.8224673633
11.5037670872 3.6136045046 7.1191077287
9.0713809703 5.0686549454 3.7384808421
9.1742909703 0.026014457 5.2991132282
12.8305009703 3.5966289759 5.5266605536
7.6798259703 1.5622141608 5.1271278482
7.5519374903 5.0125708238 1.5284829129
11.3271709703 1.5466879353 5.6681515162
11.0463809703 5.0705919793 2.0702314723
1.8773653255 1.9115055423 3.5153473633
2.032549212 5.3967730187 0.0119827637
5.5924453255 1.8705055423 3.5789573633
1.8090320626 0.1628650075 5.3366373633
1.9326653255 3.6143655423 1.7995473633
5.8060985883 7.2723886772 5.3303573633
0.0666883609 1.8505855423 1.7710473633
0.0444050555 1.9323355423 5.3173573633
3.7540253255 1.9581855423 5.3196273633
7.7783519703 6.7993747915 3.0519107382
13.0078009703 5.2603414267 3.6630627502
14.2632209703 1.3261656087 1.9402016303
