Zr3 Cu1
1.0
   4.3115170000000003    0.0000000000000000    0.0000000000000000
   0.0000000000000000    4.3115170000000003    0.0000000000000000
   0.0000000000000000    0.0000000000000000    4.3115170000000003
Zr Cu
3 1
direct
   0.5000000000000000    0.5000000000000000    0.0000000000000000 Zr
   0.5000000000000000    0.0000000000000000    0.5000000000000000 Zr
   0.0000000000000000    0.5000000000000000    0.5000000000000000 Zr
   0.0000000000000000    0.0000000000000000    0.0000000000000000 Cu
