Cu-Zr from LAMMPS dump
1.0
15.1079175291377332 0.0000000000000000 0.0000000000000000
0.9027083244110263 21.4966799023588777 0.0000000000000000
2.8991094744148391 11.6700933784378424 13.5027633092014447
Cu Zr
154 102
Direct
0.2444790000000000 0.0744740000000000 0.2998440000000000
0.3692180000000000 0.1021130000000000 0.1088840000000000
0.3963420000000000 0.0331289000000000 0.2869260000000000
0.1194950000000000 0.2209560000000000 0.0620898000000000
0.2812050000000000 0.0108631000000000 0.4828210000000000
0.3463660000000000 0.2290520000000000 0.4321340000000000
0.1536980000000000 0.2156770000000000 0.2029180000000000
0.1378640000000000 0.0803033000000000 0.4212200000000000
0.4461530000000000 0.2926940000000000 0.2303240000000000
0.0368786000000000 0.1079750000000000 0.4999410000000000
0.2616280000000000 0.4664080000000000 0.3085860000000000
0.0047405700000000 0.4224260000000000 0.4982560000000000
0.1187260000000000 0.3907880000000000 0.4110290000000000
0.2316210000000000 0.2921700000000000 0.4784520000000000
0.3813500000000000 0.0546399000000000 0.6755050000000000
0.1963940000000000 0.0927717000000000 0.5178610000000000
0.3699590000000000 0.0875086000000000 0.5081760000000000
0.0729852000000000 0.0836364000000000 0.7294400000000000
0.4998360000000000 0.1491360000000000 0.5023020000000000
0.4040970000000000 0.2150750000000000 0.5584380000000000
0.2055070000000000 0.0039314600000000 0.8460790000000000
0.0891736000000000 0.1866570000000000 0.5526690000000000
0.4556550000000000 0.2955400000000000 0.7705950000000000
0.0677037000000000 0.1981950000000000 0.8337360000000000
0.2989260000000000 0.2770440000000000 0.6104630000000000
0.0402421000000000 0.3500050000000000 0.6799190000000001
0.1818330000000000 0.1462910000000000 0.7830490000000000
0.2586340000000000 0.1877420000000000 0.9707240000000000
0.4667160000000000 0.2524910000000000 0.9658420000000000
0.4817090000000000 0.2730960000000000 0.6395800000000000
0.0892100000000000 0.1539160000000000 0.9995670000000000
0.2234470000000000 0.3659180000000000 0.9476640000000000
0.3785610000000000 0.3994600000000000 0.9365740000000000
0.2017330000000000 0.4973710000000000 0.9119170000000000
0.4774360000000000 0.4812500000000000 0.6251550000000000
0.0303152000000000 0.5680610000000000 0.0972066000000000
0.4245550000000000 0.6560630000000000 0.1517670000000000
0.1452860000000000 0.5550950000000000 0.2121080000000000
0.2477880000000000 0.5405930000000000 0.0084382600000000
0.0468373000000000 0.5629380000000000 0.3474180000000000
0.3963770000000000 0.5090640000000000 0.0493012000000000
0.4384470000000000 0.5048810000000000 0.2044560000000000
0.4618920000000000 0.9651999999999999 0.0264765000000000
0.4131390000000000 0.8264420000000000 0.2035800000000000
0.2386660000000000 0.7913040000000000 0.2083650000000000
0.1011260000000000 0.7356350000000000 0.1959470000000000
0.3677720000000000 0.6932840000000000 0.2751010000000000
0.1883180000000000 0.7110640000000000 0.0943916000000000
0.2788940000000000 0.5621130000000000 0.4754770000000000
0.4572340000000000 0.8165900000000000 0.3423140000000000
0.4378360000000000 0.6199450000000000 0.4290330000000000
0.0809745000000000 0.9797480000000000 0.1192060000000000
0.1564670000000000 0.8792920000000000 0.2574710000000000
0.0569434000000000 0.9356150000000000 0.3210290000000000
0.1502100000000000 0.5898139999999999 0.5727260000000000
0.2385020000000000 0.6489680000000000 0.6689070000000000
0.0785963000000000 0.5091530000000000 0.5136870000000000
0.3229860000000000 0.5268119999999999 0.7891359999999999
0.4048190000000000 0.7243190000000000 0.5129030000000000
0.4043520000000000 0.6725719999999999 0.6815240000000000
0.1304500000000000 0.9563380000000000 0.5991970000000000
0.1175880000000000 0.8481160000000000 0.7982170000000000
0.0827053000000000 0.6179960000000000 0.7807640000000000
0.3708680000000000 0.6689470000000000 0.9051050000000000
0.0585875000000000 0.7153320000000000 0.8238520000000000
0.0780582000000000 0.7752190000000000 0.6467970000000000
0.2932570000000000 0.7916879999999999 0.8071590000000000
0.2066080000000000 0.8357860000000000 0.6841950000000000
0.3926470000000000 0.8925900000000000 0.6410150000000000
0.4326990000000000 0.7513210000000000 0.7258370000000000
0.1006110000000000 0.5456500000000000 0.9683880000000000
0.3822700000000000 0.7437510000000001 0.9665629999999999
0.3271270000000000 0.9482320000000000 0.9557280000000000
0.3986110000000000 0.9188390000000000 0.8017480000000000
0.4740740000000000 0.9264620000000000 0.9008740000000000
0.8154510000000000 0.1710250000000000 0.0505194000000000
0.5524180000000000 0.1374870000000000 0.0600238000000000
0.5611580000000000 0.0321196000000000 0.2488510000000000
0.6723010000000000 0.1628250000000000 0.1392360000000000
0.8462640000000000 0.0086656600000000 0.3983220000000000
0.6142420000000000 0.0947957000000000 0.3244940000000000
0.9761150000000000 0.2138700000000000 0.1444200000000000
0.9895640000000000 0.4162010000000000 0.1394320000000000
0.6885280000000000 0.0068845400000000 0.4803440000000000
0.5000140000000000 0.1689050000000000 0.3467400000000000
0.5289670000000000 0.3120010000000000 0.3357660000000000
0.9950760000000000 0.1952210000000000 0.3139670000000000
0.5012580000000000 0.3687610000000000 0.0502519000000000
0.6968020000000000 0.3709970000000000 0.4583660000000000
0.5768590000000000 0.3024640000000000 0.4615570000000000
0.9434340000000000 0.3093630000000000 0.4960270000000000
0.8272290000000000 0.4143760000000000 0.4790760000000000
0.8871440000000000 0.4818370000000000 0.1794670000000000
0.5286750000000000 0.4113230000000000 0.4665070000000000
0.8272280000000000 0.3521900000000000 0.4005320000000000
0.7864950000000001 0.4990100000000000 0.2846350000000000
0.7552100000000000 0.0442492000000000 0.7030990000000000
0.5184760000000000 0.0530806000000000 0.8404509999999999
0.6993490000000000 0.0376317000000000 0.5902530000000000
0.9846300000000000 0.0022140100000000 0.5074280000000000
0.9097680000000000 0.1136920000000000 0.9831070000000000
0.5570610000000000 0.1983510000000000 0.7756189999999999
0.6469950000000000 0.2381070000000000 0.6325030000000000
0.5884710000000000 0.2580530000000000 0.8564280000000000
0.7212390000000000 0.2606420000000000 0.7287160000000000
0.8292810000000000 0.2525930000000000 0.6213810000000000
0.9295440000000000 0.2815950000000000 0.8254120000000000
0.8013850000000000 0.0355572000000000 0.9623950000000000
0.5839280000000000 0.0916883000000000 0.9578940000000000
0.7055650000000000 0.3754170000000000 0.7320220000000000
0.9561880000000000 0.2467670000000000 0.9789920000000000
0.9991340000000000 0.3908670000000000 0.9012430000000000
0.5238180000000000 0.4275840000000000 0.8831780000000000
0.5403920000000000 0.3865550000000000 0.7739000000000000
0.6674320000000000 0.4580110000000000 0.7759920000000000
0.8826340000000000 0.6268890000000000 0.1284740000000000
0.7350170000000000 0.6473570000000000 0.1857320000000000
0.6466480000000000 0.7147010000000000 0.0513959000000000
0.6883060000000000 0.5201249999999999 0.3877530000000000
0.9767130000000001 0.8338860000000000 0.1397770000000000
0.9504100000000000 0.7016610000000000 0.2932690000000000
0.5591850000000000 0.7934810000000000 0.2557560000000000
0.6947770000000000 0.7982730000000000 0.1251660000000000
0.7109140000000000 0.6565180000000000 0.3367490000000000
0.8525870000000000 0.7501820000000000 0.1441690000000000
0.5563010000000000 0.8143250000000000 0.0859419000000000
0.9109470000000000 0.9635290000000000 0.0914216000000000
0.5594340000000000 0.5434990000000000 0.4532940000000000
0.8310990000000000 0.8998370000000000 0.0209470000000000
0.9223870000000000 0.5487109999999999 0.4667770000000000
0.6255350000000000 0.8741460000000000 0.2948250000000000
0.8929319999999999 0.9191480000000000 0.3536270000000000
0.8205660000000000 0.9389780000000000 0.2417950000000000
0.6803860000000000 0.6193780000000000 0.6058650000000000
0.6199850000000000 0.5693570000000000 0.7818630000000000
0.9033250000000000 0.7297600000000000 0.5436200000000000
0.9914080000000000 0.6350479999999999 0.5292640000000000
0.6371460000000000 0.5025470000000000 0.6013870000000000
0.9839460000000000 0.6030100000000000 0.6916490000000000
0.8132730000000000 0.5146990000000000 0.6211910000000000
0.7676940000000000 0.5102620000000000 0.5068450000000000
0.5792200000000000 0.5636340000000000 0.9336910000000000
0.6718980000000000 0.8912260000000000 0.6529410000000000
0.8203340000000000 0.9513990000000000 0.5765870000000000
0.8366220000000000 0.7226020000000000 0.8751510000000000
0.7408070000000000 0.6962760000000000 0.6704000000000000
0.7946820000000000 0.8045040000000000 0.7124819999999999
0.6511720000000000 0.7515650000000000 0.8833420000000000
0.5438290000000000 0.8698970000000000 0.5852790000000000
0.9965470000000000 0.7296750000000000 0.9460320000000000
0.5982280000000000 0.9379430000000000 0.7489240000000000
0.5205630000000000 0.7955390000000000 0.9656890000000000
0.9429620000000000 0.8497209999999999 0.8477340000000000
0.9044050000000000 0.9920280000000000 0.6535010000000000
0.1904060000000000 0.0487000000000000 0.1666970000000000
0.0400827000000000 0.0714202000000000 0.3074840000000000
0.4600320000000000 0.0020764700000000 0.4322460000000000
0.2978980000000000 0.2285360000000000 0.0797097000000000
0.1666420000000000 0.2618990000000000 0.3649170000000000
0.3123060000000000 0.1854910000000000 0.2962860000000000
0.2470720000000000 0.3603140000000000 0.1198120000000000
0.0680267000000000 0.3646400000000000 0.0536067000000000
0.4970720000000000 0.1786130000000000 0.1570170000000000
0.3272550000000000 0.3850220000000000 0.2576080000000000
0.3865920000000000 0.3800270000000000 0.4250170000000000
0.1448330000000000 0.4500760000000000 0.1858210000000000
0.2453690000000000 0.1413040000000000 0.6197540000000000
0.2035890000000000 0.4097090000000000 0.5160240000000000
0.4091980000000000 0.1310750000000000 0.9436820000000000
0.3701390000000000 0.1237570000000000 0.7694210000000000
0.2625720000000000 0.2451400000000000 0.7855070000000000
0.1312690000000000 0.3031000000000000 0.8712170000000000
0.2172950000000000 0.0791264000000000 0.9518650000000000
0.3893070000000000 0.4112590000000000 0.5974720000000000
0.0720891000000000 0.2659110000000000 0.6282440000000000
0.0181585000000000 0.0412144000000000 0.9337160000000000
0.1960730000000000 0.4239870000000000 0.6816730000000000
0.3521080000000000 0.3706630000000000 0.8105620000000000
0.3188620000000000 0.5843140000000000 0.0962942000000000
0.4282720000000000 0.5436690000000000 0.3464530000000000
0.0219909000000000 0.6732410000000000 0.1388030000000000
0.2278310000000000 0.6027990000000000 0.2923180000000000
0.1480720000000000 0.8820930000000000 0.0676158000000000
0.2871730000000000 0.7301370000000000 0.3854970000000000
0.0941684000000000 0.6668790000000000 0.3895950000000000
0.3841130000000000 0.8005780000000000 0.0760538000000000
0.3228290000000000 0.8876030000000000 0.3540090000000000
0.1665590000000000 0.9296550000000000 0.4696030000000000
0.3125380000000000 0.9539910000000000 0.1209720000000000
0.1145750000000000 0.7566450000000000 0.4975480000000000
0.3267200000000000 0.5735180000000000 0.6019690000000000
0.1318480000000000 0.5045950000000000 0.7856740000000000
0.3169410000000000 0.8084170000000001 0.5814730000000000
0.2404280000000000 0.6757850000000000 0.7909510000000000
0.4184100000000000 0.5666679999999999 0.8668630000000001
0.1676640000000000 0.6818510000000000 0.9709370000000001
0.4978200000000000 0.8047710000000000 0.8029530000000000
0.0512961000000000 0.9858360000000000 0.7093920000000000
0.2678590000000000 0.9691630000000000 0.6773600000000000
0.2318510000000000 0.8565390000000001 0.9083220000000000
0.0043595200000000 0.8771240000000000 0.9475850000000000
0.9414920000000000 0.0681824000000000 0.1422660000000000
0.6998310000000000 0.0298164000000000 0.1400320000000000
0.7924620000000000 0.1450440000000000 0.2543580000000000
0.8576240000000001 0.1185080000000000 0.4636570000000000
0.6406120000000000 0.2591310000000000 0.1879180000000000
0.6647340000000000 0.1821880000000000 0.3928220000000000
0.8360040000000000 0.3022800000000000 0.0452104000000000
0.8565199999999999 0.2842850000000000 0.2473740000000000
0.7864200000000000 0.4439340000000000 0.0932597000000000
0.9830810000000000 0.2687690000000000 0.3819830000000000
0.5683900000000000 0.4352510000000000 0.1352220000000000
0.6876120000000000 0.3811270000000000 0.2800500000000000
0.9791970000000000 0.4660250000000000 0.3076690000000000
0.5954970000000001 0.4984290000000000 0.2803770000000000
0.5617230000000000 0.1125520000000000 0.6591510000000000
0.9146650000000000 0.1351810000000000 0.6175880000000000
0.5221610000000000 0.0015812300000000 0.5937660000000000
0.7387120000000000 0.2143970000000000 0.5118380000000000
0.6936760000000000 0.1059280000000000 0.8050210000000000
0.6205310000000001 0.3691470000000000 0.6289480000000000
0.9073110000000000 0.1855670000000000 0.7890500000000000
0.8583920000000000 0.3641200000000000 0.6521670000000001
0.7274220000000000 0.1667130000000000 0.9350520000000000
0.8146560000000000 0.3760000000000000 0.8516750000000000
0.6839760000000000 0.4369050000000000 0.9604090000000000
0.6294810000000000 0.2976320000000000 0.9709830000000000
0.9893720000000000 0.4716080000000000 0.6840750000000000
0.9059800000000000 0.4907720000000000 0.9058260000000000
0.8655620000000001 0.5816530000000000 0.3221030000000000
0.7336870000000000 0.5857490000000000 0.0921294000000000
0.5241120000000000 0.6354160000000000 0.0154015000000000
0.5678720000000000 0.6590180000000000 0.2629180000000000
0.5789820000000000 0.6738200000000000 0.4577560000000000
0.7977900000000000 0.8217480000000000 0.2140850000000000
0.8292600000000000 0.6716590000000000 0.4520750000000000
0.6463179999999999 0.9234670000000000 0.0789786000000000
0.9635710000000000 0.8394030000000000 0.2991040000000000
0.6965530000000000 0.9648770000000000 0.3625760000000000
0.5056070000000000 0.8713030000000000 0.4241810000000000
0.5074090000000000 0.9805440000000000 0.1673900000000000
0.7306640000000000 0.8056540000000000 0.4307370000000000
0.8028790000000000 0.5631030000000000 0.7345750000000000
0.5032330000000000 0.5708010000000000 0.6700480000000000
0.7684540000000000 0.8590050000000000 0.5483130000000001
0.9655130000000000 0.8491270000000000 0.6986280000000000
0.9712930000000000 0.8670909999999999 0.5042720000000001
0.5816270000000000 0.7306670000000000 0.5998240000000000
0.9006890000000000 0.6868200000000000 0.7402400000000000
0.6066540000000000 0.7275590000000000 0.7560030000000000
0.7492000000000000 0.6044100000000000 0.8956310000000000
0.9281970000000000 0.5947880000000000 0.9832970000000000
0.6588560000000000 0.9151090000000000 0.9167070000000000
0.8694850000000000 0.9851490000000001 0.8427180000000000
0.7612810000000000 0.9012280000000000 0.7670990000000000
0.8155890000000000 0.7787240000000000 0.9853510000000000
