Zr6 Ta2                                 
   1.00000000000000     
     3.1518418229892231   -5.4591500364494117    0.0000000000000000
     3.1518418229892231    5.4591500364494117   -0.0000000000000000
    -0.0000000000000000   -0.0000000000000000    5.1186770408909101
   Zr   Ta
     6     2
Direct
  0.1717254098208430  0.3434498196417516  0.2500000000000000
  0.6565501803582484  0.8282745901791571  0.2500000000000000
  0.1717254098209060  0.8282745901790940  0.2500000000000000
  0.8282745901791571  0.6565501803582484  0.7500000000000000
  0.3434498196417516  0.1717254098208430  0.7500000000000000
  0.8282745901790940  0.1717254098209059  0.7500000000000000
  0.3333330000000032  0.6666669999999968  0.7500000000000000
  0.6666669999999968  0.3333330000000032  0.2500000000000000
 
  0.00000000E+00  0.00000000E+00  0.00000000E+00
  0.00000000E+00  0.00000000E+00  0.00000000E+00
  0.00000000E+00  0.00000000E+00  0.00000000E+00
  0.00000000E+00  0.00000000E+00  0.00000000E+00
  0.00000000E+00  0.00000000E+00  0.00000000E+00
  0.00000000E+00  0.00000000E+00  0.00000000E+00
  0.00000000E+00  0.00000000E+00  0.00000000E+00
  0.00000000E+00  0.00000000E+00  0.00000000E+00
