Al1 Ni2 Nb1 
1.0
4.2403584418990894e+00 0.0000000000000000e+00 0.0000000000000000e+00 
2.1201030480799172e+00 3.6723161016943888e+00 0.0000000000000000e+00 
2.1201410765268762e+00 1.2240741640416852e+00 3.4622670857658253e+00 
Al Ni Nb 
1 2 1 
Cartesian
   6.3603491426    3.6721802371    0.0000000315
   2.1200743175    1.2239873970    0.8655667714
   6.3603692403    3.6721788575    2.5967003143
   4.2401804354    2.4480812911    1.7311335429
