bcc_Al3_Cu3_Nb6_Ni0_Ta6_W6_Zr0          
   1.00000000000000     
     9.9249441874816000    0.0000000000000000    0.0000000000000000
     0.0000000000000000    6.0138283527129728   -0.0080138658779303
     0.0000000000000000   -0.0084934560269528    6.6508202328632713
   Al   Cu   Nb   Ta   W 
     3     3     6     6     6
Direct
  0.1666666666666643  0.7558697657795274  0.2438643758433758
  0.5000000000000000  0.7558697657795274  0.2438643758433758
  0.8333333333333357  0.7558697657795274  0.2438643758433758
  0.1666666666666643  0.7502725877207184  0.7543895293420259
  0.5000000000000000  0.7502725877207184  0.7543895293420259
  0.8333333333333357  0.7502725877207184  0.7543895293420259
 -0.0000000000000000 -0.0066017765632695  0.5015723517537748
  0.3333333333333357 -0.0066017765632695  0.5015723517537748
  0.6666666666666643 -0.0066017765632695  0.5015723517537748
 -0.0000000000000000  0.5068941643073404 -0.0032931467393097
  0.3333333333333357  0.5068941643073404 -0.0032931467393097
  0.6666666666666643  0.5068941643073404 -0.0032931467393097
  0.1666666666666643  0.2436238112278152  0.7536770745961274
  0.5000000000000000  0.2436238112278152  0.7536770745961274
  0.8333333333333357  0.2436238112278152  0.7536770745961274
 -0.0000000000000000  0.5059822476338695  0.5027591994585878
  0.3333333333333357  0.5059822476338695  0.5027591994585878
  0.6666666666666643  0.5059822476338695  0.5027591994585878
 -0.0000000000000000 -0.0039735450170839 -0.0003445103866283
  0.3333333333333357 -0.0039735450170839 -0.0003445103866283
  0.6666666666666643 -0.0039735450170839 -0.0003445103866283
  0.1666666666666643  0.2479327449110826  0.2473751261320463
  0.5000000000000000  0.2479327449110826  0.2473751261320463
  0.8333333333333357  0.2479327449110826  0.2473751261320463
 
  0.00000000E+00  0.00000000E+00  0.00000000E+00
  0.00000000E+00  0.00000000E+00  0.00000000E+00
  0.00000000E+00  0.00000000E+00  0.00000000E+00
  0.00000000E+00  0.00000000E+00  0.00000000E+00
  0.00000000E+00  0.00000000E+00  0.00000000E+00
  0.00000000E+00  0.00000000E+00  0.00000000E+00
  0.00000000E+00  0.00000000E+00  0.00000000E+00
  0.00000000E+00  0.00000000E+00  0.00000000E+00
  0.00000000E+00  0.00000000E+00  0.00000000E+00
  0.00000000E+00  0.00000000E+00  0.00000000E+00
  0.00000000E+00  0.00000000E+00  0.00000000E+00
  0.00000000E+00  0.00000000E+00  0.00000000E+00
  0.00000000E+00  0.00000000E+00  0.00000000E+00
  0.00000000E+00  0.00000000E+00  0.00000000E+00
  0.00000000E+00  0.00000000E+00  0.00000000E+00
  0.00000000E+00  0.00000000E+00  0.00000000E+00
  0.00000000E+00  0.00000000E+00  0.00000000E+00
  0.00000000E+00  0.00000000E+00  0.00000000E+00
  0.00000000E+00  0.00000000E+00  0.00000000E+00
  0.00000000E+00  0.00000000E+00  0.00000000E+00
  0.00000000E+00  0.00000000E+00  0.00000000E+00
  0.00000000E+00  0.00000000E+00  0.00000000E+00
  0.00000000E+00  0.00000000E+00  0.00000000E+00
  0.00000000E+00  0.00000000E+00  0.00000000E+00
