Al6 Ni3 Cu3 Nb3 Ta3 W6 
1.0
9.3670696387992844e+00 0.0000000000000000e+00 0.0000000000000000e+00 
-2.1302256898950194e-04 6.5220028187965848e+00 0.0000000000000000e+00 
-6.9786283719619927e-05 6.3370477432047892e-02 6.0644543638468313e+00 
Al Ni Cu Nb Ta W 
6 3 3 3 3 6 
Cartesian
   3.1222013682    3.5796954181    3.1465906623
   1.5609621989    5.0418837647    4.8824315638
   4.6833156228    5.0418837647    4.8824315638
   9.3669175831    3.5796954181    3.1465906623
   6.2445641591    3.5796954181    3.1465906623
   7.8056690467    5.0418837647    4.8824315638
   3.1221837636    3.2254288134    5.7594608250
   9.3668999785    3.2254288134    5.7594608250
   6.2445465546    3.2254288134    5.7594608250
   1.5610138707    4.6652252702    1.3566548279
   4.6833672946    4.6652252702    1.3566548279
   7.8057207185    4.6652252702    1.3566548279
   1.5610839467    1.4903744232    4.3676685485
   4.6834373706    1.4903744232    4.3676685485
   7.8057907945    1.4903744232    4.3676685485
   1.5611029506    1.8932331233    1.4873438195
   4.6834563745    1.8932331233    1.4873438195
   7.8058097984    1.8932331233    1.4873438195
   3.1223450969    0.1391810880    0.3386221512
   3.1221148463    6.3064823840    2.9190462701
   9.3668310611    6.3064823840    2.9190462701
   9.3670613117    0.1391810880    0.3386221512
   6.2447078878    0.1391810880    0.3386221512
   6.2444776372    6.3064823840    2.9190462701
