Zr1
1.0
   2.7735817599999999    0.0000000000000000    1.6013277299999999
   0.9245279300000000    2.6149578600000001    1.6013277299999999
  -0.0000000200000000   -0.0000000100000000    3.2026575099999999
Zr
1
direct
   0.0000000000000000    0.0000000000000000   -0.0000000000000000 Zr
