Zr10 Al8                                
   1.00000000000000     
     8.4591263164683017    0.0000010261457692    0.0000000000000000
    -4.2295626437846066    7.3258181480456894    0.0000000000000000
    -0.0000000000000000    0.0000000000000000    5.7953695721357734
   Zr   Al
    10     8
Direct
  0.2902446977298223  0.2902446977298251  0.7500000000000000
  0.9999990000000102  0.7097553022701644  0.7500000000000000
  0.0000009999999898  0.2902446977298357  0.2500000000000000
  0.7097563022701675  0.9999990000000131  0.7500000000000000
  0.3333330000000032  0.6666659999999993  0.5000000000000000
  0.7097553022701777  0.7097553022701748  0.2500000000000000
  0.2902436977298326  0.0000009999999869  0.2500000000000000
  0.6666669999999968  0.3333340000000007  0.5000000000000000
  0.6666669999999968  0.3333340000000007  0.0000000000000000
  0.3333330000000032  0.6666659999999993 -0.0000000000000000
  0.0000000000000102  0.6301004267845443  0.2500000000000000
  0.3698995732154380  0.3698995732154418  0.2500000000000000
  0.6301004267845517  0.0000000000000139  0.2500000000000000
  0.0000000000000000  0.0000000000000000  0.0000000000000000
  0.3698995732154483 -0.0000000000000139  0.7500000000000000
  0.6301004267845619  0.6301004267845581  0.7500000000000000
  0.0000000000000000  0.0000000000000000  0.5000000000000000
 -0.0000000000000102  0.3698995732154556  0.7500000000000000
 
  0.00000000E+00  0.00000000E+00  0.00000000E+00
  0.00000000E+00  0.00000000E+00  0.00000000E+00
  0.00000000E+00  0.00000000E+00  0.00000000E+00
  0.00000000E+00  0.00000000E+00  0.00000000E+00
  0.00000000E+00  0.00000000E+00  0.00000000E+00
  0.00000000E+00  0.00000000E+00  0.00000000E+00
  0.00000000E+00  0.00000000E+00  0.00000000E+00
  0.00000000E+00  0.00000000E+00  0.00000000E+00
  0.00000000E+00  0.00000000E+00  0.00000000E+00
  0.00000000E+00  0.00000000E+00  0.00000000E+00
  0.00000000E+00  0.00000000E+00  0.00000000E+00
  0.00000000E+00  0.00000000E+00  0.00000000E+00
  0.00000000E+00  0.00000000E+00  0.00000000E+00
  0.00000000E+00  0.00000000E+00  0.00000000E+00
  0.00000000E+00  0.00000000E+00  0.00000000E+00
  0.00000000E+00  0.00000000E+00  0.00000000E+00
  0.00000000E+00  0.00000000E+00  0.00000000E+00
  0.00000000E+00  0.00000000E+00  0.00000000E+00
