Al3 Zr18 W3 
1.0
9.0927037440166334e+00 0.0000000000000000e+00 0.0000000000000000e+00 
1.7406653552160642e+00 5.8883756288337370e+00 0.0000000000000000e+00 
-2.1453979561667186e-01 1.6924856712146857e-01 9.4939755702421564e+00 
Al Zr W 
3 18 3 
Cartesian
   3.7476047625    4.0630266151    2.3247233401
   9.7490107115    4.3095417641    2.5208308994
   2.6192537335    2.9517754745    9.2920766858
   1.7031010065    1.5239458444    2.1878961641
   5.1620175408    5.7591329629    0.1754657577
   5.1362184016    5.8279003628    4.3698775815
   1.8781365173    5.4726587112    0.2462139142
   2.1389950363    5.7921235475    4.5307909734
   5.6806512067    2.5927979485    0.0706269185
   5.4843351611    2.7646168097    4.6296422471
   6.8529185373    4.2207394550    2.3114317743
   8.4929212912    2.5999047132    4.4514688075
   8.8002628234    2.6741742288    0.2109475926
   8.1520083563    5.6587868931    4.7038566541
   2.4323022422    2.7882375125    4.7870048921
   1.1310211471    1.2915294623    7.4056427279
   3.9108175665    4.4315663191    7.0668407157
   4.1383585522    1.3746050765    7.0738187878
   9.9306504941    4.2870413344    7.0555713667
   7.2100529556    1.2732613448    7.2978291413
   6.9387207390    4.3889785620    7.3976393065
   4.6744134452    1.3790056445    2.3396288817
   8.1503196438    5.6254289667    0.2093450095
   7.2222863687    1.0790064838    2.2806048356
