Converted from final.data
1.0
15.2023580327045504 0.0000000000000000 0.0000000000000000
0.2563864741701636 15.1551225722369942 0.0000000000000000
-0.4306257820325592 -0.1065954968025540 35.4132349931738659
Al W Ni Zr
21 9 16 18
Direct
0.6718599378136133 0.0914562909544657 0.1451112171500767
0.1856531683066691 0.2648618685749745 0.0498750795281376
0.5825275020746227 0.2342502812464196 0.1435798910090590
0.0676983422354330 0.9721930981052985 0.1117842993192273
0.0484554000621565 0.2480997246869287 0.1441063978343854
0.1766175532044672 -0.0204614800439474 0.0431364918253985
0.9611441539108759 0.7794224428527640 0.4763994819174795
0.2118693482794513 0.1515376093965178 0.4357710043325048
0.2962797273073599 0.6934247343891333 0.4880760387978484
0.2147089876640824 0.5266065494383403 0.1791813407515113
0.0336533499551901 0.6933932337514535 0.5181608074457086
0.3936846440370287 0.7005072654823147 0.3193108489231141
0.0424134513168877 0.3488686778802322 0.3657746310577504
0.2509990435841563 0.8104694129878715 0.3304644802991222
0.5086381946773013 0.1084531577986161 0.0389699994552828
0.5307745963506159 0.4334521176731139 0.4369819504390294
0.4143767588333763 0.8560362761282194 0.3599357881282911
0.3177950334445493 0.0417067479506100 0.1569641878299066
0.9224548471102834 0.2566178369967356 0.3340037109458737
0.3738734004016256 0.2442846556000010 0.0161153308596831
0.0597524753272477 0.0246614038363412 0.0026230258111108
0.9360759478101360 0.9302332413541654 0.0395452332655031
0.4172482518570301 0.1471043704459447 0.2168557637046529
0.3073899462306890 0.8648218875680297 0.2044039799043585
0.4754697176015521 0.8717887510553698 0.1910359672238083
0.6161301199223164 0.4397018676627059 0.9703670202381477
0.2979477370006290 0.3628966273954884 0.0738435358464623
0.4641395137583452 0.9345522659621813 0.9839199361979636
0.4034735152943357 0.2068414534917464 0.1427036497357915
0.2790666236022505 0.9718667221064127 0.3610302082780061
0.9902029057100488 0.2075065484460479 0.1956511859477174
0.3381441706045777 0.2486299084850946 0.3328854664038430
0.4756553712951941 0.1644140894208744 0.3562405340626635
0.1727708407663632 0.2592950601374600 0.9367032886107510
0.3658787831241326 -0.0332398166211767 0.2082143750144431
0.2587508992960255 0.7092970210215537 0.1819220562288398
0.8887405487593395 0.3407911648900057 0.0598586936076588
0.4857770929693908 0.1725770038947365 -0.0249484092594358
0.1013630304961568 0.3429810585916156 0.8885826629143930
0.3694344998024963 0.0714256779039452 0.0177332698566506
0.3432107219476030 0.1954465221663755 0.0843241497199520
0.9729144373791353 0.1153759116481528 0.0153132988198915
0.2151855393120943 0.2823156112496494 0.1233082067913194
0.6179893868234426 0.9657498360090241 0.1808527371348509
0.3377219187234146 0.4446573223205348 0.9697848567015401
0.0692517011959715 0.2093343098121497 0.4593773463217348
0.2711001418484178 0.9691627129399082 -0.0268592066799702
0.3448077424992240 0.1156221305286347 0.3815296480994886
-0.0326096266883736 0.7971187590588287 0.1170012970637315
0.6670197978156852 0.8964607072715419 0.9705396469433883
0.4826847714166329 0.3362921886601772 0.0712063794548071
0.3889290585778161 0.0445574705586940 0.0894342751983889
0.5056880959213300 -0.0222488786818577 0.3462731940996398
0.0943717892979082 0.2449086579389020 0.2440436401678644
0.1636338609663011 0.9859156348839322 0.1929175735763883
0.1778639052484767 0.1059407325062250 0.1096971473764972
0.1975186891180720 0.2755419896828980 0.3889498301853392
0.3797778673489854 0.7036664832033197 0.2241983342489993
0.4133834977277516 0.8600327845626001 0.2711022789981796
0.5420850014558281 0.0884782749480535 0.4299857113715665
0.3708016455147911 0.0482287059233796 0.3062465091903427
0.1895774812373262 0.1042652630156148 0.3168373321720236
0.2329946534228285 0.9597952455778511 0.2647632489684751
0.1168433136054319 0.7676324933641677 0.4581686560807745
