Zr1 Al5 Ni2                             
   1.00000000000000     
     3.8578224800000003    0.0000000000000000   -1.0353622700000000
    -0.2778704999999990    3.8478032199999999   -1.0353622700000000
     0.0162255100000000    0.0174404500000000    7.7653766300000004
   Zr   Al   Ni
     1     5     2
Direct
  0.0000000000000000  0.0000000000000000  0.0000000000000000
  0.5000000000000000  0.5000000000000000  0.0000000000000000
  0.6482329899999968  0.1482329899999968  0.2964659900000015
  0.1482329899999968  0.6482329899999968  0.2964659900000015
  0.3517670100000032  0.8517670100000032  0.7035340099999985
  0.8517670100000032  0.3517670100000032  0.7035340099999985
  0.2397085599999969  0.2397085599999969  0.4794171200000008
  0.7602914400000031  0.7602914400000031  0.5205828799999992
 
  0.00000000E+00  0.00000000E+00  0.00000000E+00
  0.00000000E+00  0.00000000E+00  0.00000000E+00
  0.00000000E+00  0.00000000E+00  0.00000000E+00
  0.00000000E+00  0.00000000E+00  0.00000000E+00
  0.00000000E+00  0.00000000E+00  0.00000000E+00
  0.00000000E+00  0.00000000E+00  0.00000000E+00
  0.00000000E+00  0.00000000E+00  0.00000000E+00
  0.00000000E+00  0.00000000E+00  0.00000000E+00
