Al2 Ni9 Ta1 
1.0
3.6085189429055617e+00 0.0000000000000000e+00 0.0000000000000000e+00 
0.0000000000000000e+00 3.6085191448497840e+00 0.0000000000000000e+00 
0.0000000000000000e+00 0.0000000000000000e+00 1.0766788580786285e+01 
Al Ni Ta 
2 9 1 
Cartesian
   0.0000000261    0.0000000080    3.6597606401
   0.0000003531    3.6085191448    7.1070279407
   1.8042594715    1.8042595724    3.6169841890
   1.8042594715    0.0000000462    1.8428004663
   0.0000000365    1.8042595724    1.8428004663
   1.8042594715    1.8042595724    0.0000001931
   1.8042594715    1.8042595724    7.1498043917
   1.8042594715    0.0000000298    5.3833942904
   1.8042594715    3.6085191448    8.9239881145
   0.0000000044    1.8042595724    5.3833942904
   0.0000000042    1.8042595724    8.9239881145
   3.6085189429    3.6085191448    0.0000001785
