Zr1 Al1 Ni2
1.0
   2.8889079999999998    0.0000000000000000    0.0000000000000000
   0.0000000000000000    2.8889079999999998    0.0000000000000000
   0.0000000000000000    0.0000000000000000    6.7021410000000001
Zr Al Ni
1 1 2
direct
   0.0000000000000000    0.0000000000000000    0.5000000000000000 Zr
   0.0000000000000000    0.0000000000000000    0.0000000000000000 Al
   0.5000000000000000    0.5000000000000000    0.2108529999999990 Ni
   0.5000000000000000    0.5000000000000000    0.7891469999999990 Ni
