Zr2 Cu2
1.0
   4.1382159999999999    0.0000000000000000    0.0000000000000000
   0.0000000000000000    3.2421889999999989    0.0000000000000000
   0.0000000000000000    1.5103620000000000    5.2984989999999996
Zr Cu
2 2
direct
   0.7500000000000000    0.6474019999999990    0.1936749999999990 Zr
   0.2500000000000000    0.3525979999999990    0.8063250000000000 Zr
   0.7500000000000000    0.9407829999999990    0.6376970000000000 Cu
   0.2500000000000000    0.0592170000000000    0.3623030000000000 Cu
