Zr1 Al1 Ni2
1.0
   3.7231782300000003   -0.0000000000000000    2.1495786699999999
   1.2410587399999999    3.5102461500000000    2.1495786699999999
   0.0000000000000000    0.0000000000000000    4.2991563299999997
Zr Al Ni
1 1 2
direct
   0.5000000000000000    0.5000000000000000    0.5000000000000000 Zr
  -0.0000000000000000    0.0000000000000000   -0.0000000000000000 Al
   0.2500000000000000    0.2500000000000000    0.2500000000000000 Ni
   0.7500000000000000    0.7500000000000000    0.7500000000000000 Ni
