Al12 Ni4 Nb12 W4 
1.0
8.9670373120841091e+00 0.0000000000000000e+00 0.0000000000000000e+00 
2.1028838995751055e-09 6.4313545728640884e+00 0.0000000000000000e+00 
1.3008803568650118e-10 7.8363102260153339e-11 8.9405946250971802e+00 
Al Ni Nb W 
12 4 12 4 
Cartesian
   2.1876701595    1.6726088151    0.0892857847
   2.2684272981    3.2611855514    2.3364277122
   0.0540908734    1.6726088151    2.1458589378
   2.1876701611    6.3665844010    2.1458589378
   0.0540907852    6.3665844010    0.0892857847
   4.5192164332    4.9292988497    2.3887301907
   8.9403693447    4.7780076647    2.3364277122
   6.6895802096    3.1098943664    2.3887301907
   2.2684272987    4.7780076648    8.8393155692
   4.5192164327    3.1098943665    8.7870130906
   8.9403693443    3.2611855515    8.8393155692
   6.6895802103    4.9292988497    8.7870130906
   4.5024749730    0.0079712782    4.5106283349
   6.7063216678    1.5998701949    4.5106283349
   4.5024749735    1.5998701950    6.6651149465
   6.7063216673    0.0079712139    6.6651149465
   4.4138985789    1.5376789962    2.2199317642
   4.4138985784    0.0701622196    0.0152165344
   4.4994979176    3.1109555400    4.4669803519
   6.7948980618    0.0701622196    2.2199317642
   6.7092987252    4.9282376762    4.4669803519
   6.7948980623    1.5376789962    0.0152165344
   2.2604107668    3.1374462895    6.6993753051
   2.2604107673    4.9017469267    4.4763679763
   8.9483858756    3.1374462894    4.4763679763
   8.9483858762    4.9017469267    6.6993753051
   6.7092987247    3.1109555400    6.7087629294
   4.4994979182    4.9282376762    6.7087629294
   2.2308016090    1.5463613249    4.4894301850
   2.2308016085    0.0614805984    6.6863130963
   0.0109545812    0.0614805341    4.4894301850
   0.0109544921    1.5463548936    6.6863130963
