Cu4 Zr4 W24 
1.0
6.3509232659563040e+00 0.0000000000000000e+00 0.0000000000000000e+00 
-7.3240862783481961e-08 8.9754311513058482e+00 0.0000000000000000e+00 
4.8370081920884435e-06 8.2677714048146057e-08 8.9274328336691138e+00 
Cu Zr W 
4 4 24 
Cartesian
   4.6358588681    2.2605162299    4.5191914845
   3.3028012237    2.2605162495    6.6400995576
   3.3028000199    8.9587727929    4.5191914845
   4.6358599626    8.9587728126    6.6400995576
   6.2990628761    2.2593224774    2.3402104607
   1.6395936507    8.9599665051    2.3402104607
   1.6395972157    2.2593225374    8.8190805814
   6.2990663318    8.9599665651    8.8190805814
   3.2105643979    2.2999273273    2.2716299217
   4.7461096535    4.5354648903    2.2601760254
   4.7280920546    8.9193616539    2.2716299217
   1.6028217931    4.5163651727    2.2513110846
   6.3358346374    6.7029238081    2.2513110846
   3.1925467866    6.6838330661    2.2601760254
   1.6624455246    2.2615932819    4.5499822003
   4.7280956933    2.2999273885    8.8876611204
   6.2762145672    2.2615933010    6.6093088418
   1.6624465857    8.9576957606    6.6093088418
   1.5833395559    4.4883708439    6.6718544362
   6.2762133968    8.9576957415    4.5499822003
   3.1764611272    4.4887029147    4.4957480458
   4.7621989283    4.4887029348    6.6635429962
   0.0044001169    4.4883708237    4.4874366059
   3.1925504012    4.5354649518    8.8991150167
   3.2105679285    8.9193617152    8.8876611204
   1.6028253819    6.7029238697    8.9079799575
   1.5833383540    6.7309181986    4.4874366059
   6.3358382619    4.5163652344    8.9079799575
   4.7461132330    6.6838331276    8.8991150167
   4.7621977355    6.7305861077    4.4957480458
   3.1764622834    6.7305861278    6.6635429962
   0.0044012695    6.7309182188    6.6718544362
