Cu1 Ni1                                 
   1.00000000000000     
     4.1991125679021994   -1.2577246002214781    0.0026038323640656
     4.1991125679021994    1.2577246002214781    0.0026038323640656
     3.8210661454773676    0.0000000000000000    2.1479934897039366
   Cu   Ni
     1     1
Direct
 -0.0000000000000000 -0.0000000000000000  0.0000000000000000
  0.5000000000000000  0.5000000000000000  0.5000000000000000
 
  0.00000000E+00  0.00000000E+00  0.00000000E+00
  0.00000000E+00  0.00000000E+00  0.00000000E+00
