Al9 Ni3 Cu9 Zr3 
1.0
1.0000604238545098e+01 0.0000000000000000e+00 0.0000000000000000e+00 
-3.6213286291678028e-04 3.8678101002964014e+00 0.0000000000000000e+00 
2.4830168556810224e-05 1.9206621767234506e+00 9.1567689561947354e+00 
Al Ni Cu Zr 
9 3 9 3 
Cartesian
   3.5277695997    2.4892715536    2.2149125293
   1.6667659225    0.5549344608    2.1106169309
   3.5393461332    0.5543069219    0.1870508135
   9.8060089322    2.4892715536    2.2149125293
   9.7946940826    0.5543069219    0.1870508135
   1.6665600576    4.4122273655    9.0583153764
   0.1502944413    4.4310238836    6.4969656504
   1.6666428867    2.4940444478    4.7288301920
   3.1827026600    4.4310238836    6.4969656504
   0.1882527725    4.4277811293    3.9346178366
   3.1446333976    4.4277811293    3.9346178366
   1.6667059693    2.4844394567    7.5110411852
   5.1229669107    0.5552393220    2.2087133967
   5.1703841914    2.4901018654    0.2202908005
   6.6668930723    2.4904376773    2.3900998329
   8.1632950236    2.4901018654    0.2202908005
   8.2111735008    0.5552389352    2.2087133967
   6.6667507196    4.4294917910    4.1438042234
   4.7671785944    2.5030747468    7.3785335817
   6.6670208011    0.5575627187    0.0079775419
   8.5668181694    2.5030747468    7.3785335817
   4.8379744553    2.4967076766    4.7380235881
   8.4959154688    2.4967076766    4.7380235881
   6.6668109405    4.4344032251    6.8587862189
