Al1 Ni3                                 
   1.00000000000000     
     3.5647881962002725    0.0000000000000000   -0.0000000000000000
     0.0000000000000000    3.5649437559281791    0.0000000000000000
    -0.0000000000000000    0.0000000000000000    3.5649427203104516
   Al   Ni
     1     3
Direct
  0.0000000000000000  0.0000000000000000  0.0000000000000000
  0.0000000000000000  0.5000000000000000  0.5000000000000000
  0.5000000000000000  0.0000000000000000  0.5000000000000000
  0.5000000000000000  0.5000000000000000  0.0000000000000000
 
  0.00000000E+00  0.00000000E+00  0.00000000E+00
  0.00000000E+00  0.00000000E+00  0.00000000E+00
  0.00000000E+00  0.00000000E+00  0.00000000E+00
  0.00000000E+00  0.00000000E+00  0.00000000E+00
