fcc_Al8_Cu8_Nb8_Ni0_Ta4_W4_Zr0          
   1.00000000000000     
     7.0634023640031689    0.0000000000000000    0.0000000000000000
     0.0000000000000000    8.3140329122225793    0.0000000000000000
     0.0000000000000000    0.0000000000000000    8.6461329314407713
   Al   Cu   Nb   Ta   W 
     8     8     8     4     4
Direct
 -0.0072991242350027  0.5095621193454927 -0.0095218051120116
  0.2572991242350026  0.7404378806545073 -0.0095218051120116
 -0.0072991242350027  0.7404378806545073  0.2595218051120116
  0.2572991242350026  0.5095621193454927  0.2595218051120116
  0.5512818395958384  0.4841499857484197  0.4825887604485941
  0.6987181604041616  0.7658500142515802  0.4825887604485941
  0.5512818395958384  0.7658500142515802  0.7674112395514057
  0.6987181604041616  0.4841499857484197  0.7674112395514057
  0.5024150893996213  0.0158425057817372  0.5020085871293400
  0.7475849106003787  0.2341574942182628  0.5020085871293400
  0.5024150893996213  0.2341574942182628  0.7479914128706600
  0.7475849106003787  0.0158425057817372  0.7479914128706600
  0.4983036582187432  0.5131816993285812  0.0184895874483182
  0.7516963417812569  0.7368183006714188  0.0184895874483182
  0.4983036582187432  0.7368183006714188  0.2315104125516819
  0.7516963417812569  0.5131816993285812  0.2315104125516819
 -0.0028016964940680 -0.0136122760264624 -0.0052893923062845
  0.2528016964940680  0.2636122760264625 -0.0052893923062845
 -0.0028016964940680  0.2636122760264625  0.2552893923062847
  0.2528016964940680 -0.0136122760264624  0.2552893923062847
 -0.0005395632050479 -0.0343569096315059  0.5160860698752210
  0.2505395632050481  0.2843569096315061  0.5160860698752210
 -0.0005395632050479  0.2843569096315061  0.7339139301247790
  0.2505395632050481 -0.0343569096315059  0.7339139301247790
  0.4998407128198629 -0.0037193594477458  0.0009042334007358
  0.7501592871801371  0.2537193594477459  0.0009042334007358
  0.4998407128198629  0.2537193594477459  0.2490957665992641
  0.7501592871801371 -0.0037193594477458  0.2490957665992641
 -0.0356448890186972  0.5291746191811798  0.5019060264712125
  0.2856448890186972  0.7208253808188202  0.5019060264712125
 -0.0356448890186972  0.7208253808188202  0.7480939735287877
  0.2856448890186972  0.5291746191811798  0.7480939735287877
 
  0.00000000E+00  0.00000000E+00  0.00000000E+00
  0.00000000E+00  0.00000000E+00  0.00000000E+00
  0.00000000E+00  0.00000000E+00  0.00000000E+00
  0.00000000E+00  0.00000000E+00  0.00000000E+00
  0.00000000E+00  0.00000000E+00  0.00000000E+00
  0.00000000E+00  0.00000000E+00  0.00000000E+00
  0.00000000E+00  0.00000000E+00  0.00000000E+00
  0.00000000E+00  0.00000000E+00  0.00000000E+00
  0.00000000E+00  0.00000000E+00  0.00000000E+00
  0.00000000E+00  0.00000000E+00  0.00000000E+00
  0.00000000E+00  0.00000000E+00  0.00000000E+00
  0.00000000E+00  0.00000000E+00  0.00000000E+00
  0.00000000E+00  0.00000000E+00  0.00000000E+00
  0.00000000E+00  0.00000000E+00  0.00000000E+00
  0.00000000E+00  0.00000000E+00  0.00000000E+00
  0.00000000E+00  0.00000000E+00  0.00000000E+00
  0.00000000E+00  0.00000000E+00  0.00000000E+00
  0.00000000E+00  0.00000000E+00  0.00000000E+00
  0.00000000E+00  0.00000000E+00  0.00000000E+00
  0.00000000E+00  0.00000000E+00  0.00000000E+00
  0.00000000E+00  0.00000000E+00  0.00000000E+00
  0.00000000E+00  0.00000000E+00  0.00000000E+00
  0.00000000E+00  0.00000000E+00  0.00000000E+00
  0.00000000E+00  0.00000000E+00  0.00000000E+00
  0.00000000E+00  0.00000000E+00  0.00000000E+00
  0.00000000E+00  0.00000000E+00  0.00000000E+00
  0.00000000E+00  0.00000000E+00  0.00000000E+00
  0.00000000E+00  0.00000000E+00  0.00000000E+00
  0.00000000E+00  0.00000000E+00  0.00000000E+00
  0.00000000E+00  0.00000000E+00  0.00000000E+00
  0.00000000E+00  0.00000000E+00  0.00000000E+00
  0.00000000E+00  0.00000000E+00  0.00000000E+00
