Ni23 Zr6 
1.0
8.1329197190063560e+00 0.0000000000000000e+00 0.0000000000000000e+00 
4.0664528816488525e+00 7.0433098423331950e+00 0.0000000000000000e+00 
4.0664534990462933e+00 2.3477667013174610e+00 6.6404928327199615e+00 
Ni Zr 
23 6 
Cartesian
   4.0663980378    2.3477772745    4.2223308057
   4.0663489227    4.7633430969    0.8060695035
   1.9743500385    1.1397926123    0.8060097390
   4.0662179511    2.3477302154    0.1118730468
   4.0663324106    0.8880419797    2.1761426252
   2.8023004725    3.0776271705    2.1761758277
   5.3305755325    3.0776600393    2.1762488731
   6.0997254771    8.2171814541    3.3202331354
   4.0675242221    0.0001199111    0.0000071422
  10.1653587304    8.2171133687    3.3203792262
  10.1655989605    5.8692737131    6.6403334609
  10.1073165876    8.2511618473    5.8344963747
   6.1584525816    1.1399569562    0.8061159869
   2.0333722951    3.5214322859    0.0000874659
  12.1983949702    7.0431351373    0.0000038967
   4.0664590666    4.6955382718    3.3202464164
  12.1993223339    7.0433227468    2.4181885890
  12.1992697877    4.6275573640    5.8344432507
  14.2913093366    8.2509904601    5.8343901268
  12.1991287130    7.0432667388    6.5286337310
  12.1992505149    8.5030031039    4.4642173976
  13.4635069215    6.3134540687    4.4642506001
  10.9351936367    6.3134869374    4.4643236455
   9.8816492486    5.7051575236    1.8924010070
   6.3841969179    5.7051504803    1.8924209285
   8.1328793197    2.6762948189    1.8924408499
   6.3842093828    3.6859096290    4.7480453423
   9.8816251154    3.6859002379    4.7480586233
   8.1328735837    6.7147864203    4.7480851853
