Al3 Zr21 
1.0
9.6172506118532102e+00 0.0000000000000000e+00 0.0000000000000000e+00 
-4.3641087722906560e-08 5.5180552453022669e+00 0.0000000000000000e+00 
3.3630349014455032e-07 2.5177862664006508e-02 1.0206637369674230e+01 
Al Zr 
3 21 
Cartesian
   4.7790812579    2.7192794354    5.0771386600
   8.0439166439    2.7192794354    5.0771386600
   6.4115038385    3.7159132612    7.7105225478
   1.6028783837    0.8859879634    2.5157115656
   3.2253469555    0.0216479731    0.0220479698
   3.2368396270    3.6255265115    2.6166552092
   3.2532660002    0.0817322144    5.0759648967
   9.5976506557    0.0216479731    0.0220479698
   9.5861580982    3.6255265115    2.6166552092
   4.8490659219    0.9504386998    2.5693372383
   6.4115036722    3.6925624586    2.6624523911
   7.9739318425    0.9504386998    2.5693372383
   9.5697319433    0.0817322144    5.0759648967
   1.6028786198    2.8670363516   10.1549203381
   1.6028784558    2.7466519047    5.1499017778
   3.3568342250    3.7458157979    7.5629651914
   1.6028785542    0.8674788543    7.6845976889
   4.8406222120    2.7889452542   10.1729860863
   7.9823856419    2.7889452542   10.1729860863
   6.4115039057    5.4759961237   10.1710570318
   9.4661638245    3.7458157979    7.5629651914
   4.8403143899    0.9814698631    7.6126204822
   6.4115037428    5.4265302326    5.2176942632
   7.9826837066    0.9814698631    7.6126204822
