Zr6 Ta6 W12 
1.0
9.6581187148049743e+00 0.0000000000000000e+00 0.0000000000000000e+00 
0.0000000000000000e+00 6.4387460802365810e+00 0.0000000000000000e+00 
0.0000000000000000e+00 0.0000000000000000e+00 6.8648389550690148e+00 
Zr Ta W 
6 6 12 
Cartesian
   1.6096896718    4.8290595602    5.0877037706
   1.6096896718    1.6096865201    5.0877037706
   4.8290593574    4.8290595602    5.0877037706
   4.8290593574    1.6096865201    5.0877037706
   8.0484290430    4.8290595602    5.0877037706
   8.0484290430    1.6096865201    5.0877037706
   0.0000001196    0.0000000071    0.1563645558
   3.2193696856    0.0000000019    0.1563645558
   0.0000000678    3.2193730401    0.1563645558
   3.2193696856    3.2193730401    0.1563645558
   6.4387490292    0.0000000406    0.1563645558
   6.4387490292    3.2193730401    0.1563645558
   1.6096896718    1.6096865201    1.7841716444
   3.2193696856    0.0000000217    3.2690225807
   1.6096896718    4.8290595602    1.7841716444
   3.2193696856    3.2193730401    3.2690225807
   0.0000000775    0.0000000017    3.2690225807
   0.0000001493    3.2193730401    3.2690225807
   4.8290593574    1.6096865201    1.7841716444
   4.8290593574    4.8290595602    1.7841716444
   8.0484290430    1.6096865201    1.7841716444
   6.4387490292    6.4387460802    3.2690225807
   8.0484290430    4.8290595602    1.7841716444
   6.4387490292    3.2193730401    3.2690225807
