Zr4 Al8
1.0
   5.2756340599999998    0.0000010100000000   -0.0000000000000000
  -2.6378160199999998    4.5688310599999999    0.0000000000000000
   0.0000000000000000   -0.0000000000000000    8.7386607099999996
Zr Al
4 8
direct
   0.3333330000000000    0.6666670000000000    0.4349130800000000 Zr
   0.6666670000000000    0.3333330000000000    0.9349120800000000 Zr
   0.6666670000000000    0.3333330000000000    0.5650879200000000 Zr
   0.3333330000000000    0.6666670000000000    0.0650879200000000 Zr
   0.1706605000000000    0.3413200000000000    0.7500000000000000 Al
   0.8293395000000000    0.1706605000000000    0.2500000000000000 Al
   0.3413200000000000    0.1706605000000000    0.2500000000000000 Al
   0.6586800000000000    0.8293395000000000    0.7500000000000000 Al
  -0.0000000000000000   -0.0000000000000000    0.0000000000000000 Al
  -0.0000000000000000   -0.0000000000000000    0.5000000000000000 Al
   0.8293395000000000    0.6586800000000000    0.2500000000000000 Al
   0.1706605000000000    0.8293395000000000    0.7500000000000000 Al
