Nb1 W1 
1.0
2.7978877234535298e+00 0.0000000000000000e+00 0.0000000000000000e+00 
-9.5543799547757347e-01 2.6296984521499440e+00 0.0000000000000000e+00 
4.7332139847321446e-16 -7.2177648046939761e-17 4.5213898320275687e+00 
Nb W 
1 1 
Cartesian
   1.8424497280    2.6296984521    0.0000000000
   0.9212248640    1.3148492261    2.2606949160
