fcc_Al0_Cu0_Nb0_Ni12_Ta0_W16_Zr4        
   1.00000000000000     
     7.8499916948008055    0.0000000000000000   -0.0000000000000000
     0.0000000000000000    7.7617772137276333   -0.0000000000000000
    -0.0000000000000000   -0.0000000000000000    7.8499916948008055
   Ni   W    Zr
    12    16     4
Direct
  0.5176065123026957  0.5090790102581697  0.5092531813064824
  0.7323934876973043  0.7409209897418303  0.5092531813064824
  0.5176065123026957  0.7409209897418303  0.7407468186935176
  0.7323934876973043  0.5090790102581697  0.7407468186935176
  0.0092531813064824  0.5090790102581697  0.0176065123026955
  0.2407468186935176  0.7409209897418303  0.0176065123026955
  0.0092531813064824  0.7409209897418303  0.2323934876973044
  0.2407468186935176  0.5090790102581697  0.2323934876973044
  0.4974615458617281  0.5280501312670324 -0.0025384541382718
  0.7525384541382718  0.7219498687329676 -0.0025384541382718
  0.4974615458617281  0.7219498687329676  0.2525384541382719
  0.7525384541382718  0.5280501312670324  0.2525384541382719
  0.4903656622753496 -0.0155663481027614  0.5082561447200120
  0.7596343377246505  0.2655663481027614  0.5082561447200120
  0.4903656622753496  0.2655663481027614  0.7417438552799880
  0.7596343377246505 -0.0155663481027614  0.7417438552799880
  0.0073591709432408 -0.0283461255121292  0.5073591709432411
  0.2426408290567592  0.2783461255121292  0.5073591709432411
  0.0073591709432408  0.2783461255121292  0.7426408290567589
  0.2426408290567592 -0.0283461255121292  0.7426408290567589
  0.0082561447200119 -0.0155663481027614 -0.0096343377246505
  0.2417438552799880  0.2655663481027614 -0.0096343377246505
  0.0082561447200119  0.2655663481027614  0.2596343377246504
  0.2417438552799880 -0.0155663481027614  0.2596343377246504
 -0.0145876424254052  0.5359792901048271  0.4854123575745948
  0.2645876424254052  0.7140207098951729  0.4854123575745948
 -0.0145876424254052  0.7140207098951729  0.7645876424254052
  0.2645876424254052  0.5359792901048271  0.7645876424254052
  0.4944201179479021 -0.0362069315125443 -0.0055798820520979
  0.7555798820520980  0.2862069315125444 -0.0055798820520979
  0.4944201179479021  0.2862069315125444  0.2555798820520979
  0.7555798820520980 -0.0362069315125443  0.2555798820520979
 
  0.00000000E+00  0.00000000E+00  0.00000000E+00
  0.00000000E+00  0.00000000E+00  0.00000000E+00
  0.00000000E+00  0.00000000E+00  0.00000000E+00
  0.00000000E+00  0.00000000E+00  0.00000000E+00
  0.00000000E+00  0.00000000E+00  0.00000000E+00
  0.00000000E+00  0.00000000E+00  0.00000000E+00
  0.00000000E+00  0.00000000E+00  0.00000000E+00
  0.00000000E+00  0.00000000E+00  0.00000000E+00
  0.00000000E+00  0.00000000E+00  0.00000000E+00
  0.00000000E+00  0.00000000E+00  0.00000000E+00
  0.00000000E+00  0.00000000E+00  0.00000000E+00
  0.00000000E+00  0.00000000E+00  0.00000000E+00
  0.00000000E+00  0.00000000E+00  0.00000000E+00
  0.00000000E+00  0.00000000E+00  0.00000000E+00
  0.00000000E+00  0.00000000E+00  0.00000000E+00
  0.00000000E+00  0.00000000E+00  0.00000000E+00
  0.00000000E+00  0.00000000E+00  0.00000000E+00
  0.00000000E+00  0.00000000E+00  0.00000000E+00
  0.00000000E+00  0.00000000E+00  0.00000000E+00
  0.00000000E+00  0.00000000E+00  0.00000000E+00
  0.00000000E+00  0.00000000E+00  0.00000000E+00
  0.00000000E+00  0.00000000E+00  0.00000000E+00
  0.00000000E+00  0.00000000E+00  0.00000000E+00
  0.00000000E+00  0.00000000E+00  0.00000000E+00
  0.00000000E+00  0.00000000E+00  0.00000000E+00
  0.00000000E+00  0.00000000E+00  0.00000000E+00
  0.00000000E+00  0.00000000E+00  0.00000000E+00
  0.00000000E+00  0.00000000E+00  0.00000000E+00
  0.00000000E+00  0.00000000E+00  0.00000000E+00
  0.00000000E+00  0.00000000E+00  0.00000000E+00
  0.00000000E+00  0.00000000E+00  0.00000000E+00
  0.00000000E+00  0.00000000E+00  0.00000000E+00
