Al1 
1.0
2.8520411033979398e+00 0.0000000000000000e+00 0.0000000000000000e+00 
1.4260203040051385e+00 2.4699399558781487e+00 0.0000000000000000e+00 
1.4260202235716222e+00 8.2331327924721487e-01 2.3286816697565675e+00 
Al 
1 
Cartesian
   4.2777733513    2.4698559780    0.0000000001
