Ta1 Ni3                                 
   1.00000000000000     
     3.3325251478833975    0.0003990907903477   -1.4582594750073052
    -0.6374450001103144    3.2709928999563638   -1.4582594793313239
     0.0020472183789599    0.0024841923706751    4.5433108045520463
   Ta   Ni
     1     3
Direct
  0.0000000000000000 -0.0000000000000000  0.0000000000000000
  0.5000000000000000  0.5000000000000000  0.0000000000000000
  0.7500044984822600  0.2499955015178054  0.5000000000000064
  0.2499955015177401  0.7500044984821946  0.4999999999999936
 
  0.00000000E+00  0.00000000E+00  0.00000000E+00
  0.00000000E+00  0.00000000E+00  0.00000000E+00
  0.00000000E+00  0.00000000E+00  0.00000000E+00
  0.00000000E+00  0.00000000E+00  0.00000000E+00
