Ta4 Al4 Cu4
1.0
  -2.5326390000000001   -4.3867219999999998    0.0000000000000000
  -2.5282309999999999    4.3841770000000002    0.0000000000000000
   0.0000000000000000    0.0000000000000000   -7.9202300000000001
Ta Al Cu
4 4 4
direct
   0.6656630000000000    0.3313370000000000    0.5639870000000000 Ta
   0.3324610000000000    0.6648959999999990    0.4318590000000000 Ta
   0.3324610000000000    0.6648959999999990    0.0681410000000000 Ta
   0.6656630000000000    0.3313370000000000    0.9360130000000000 Ta
   0.1700050000000000    0.3399930000000000    0.7500000000000000 Al
   0.1691800000000000    0.8290400000000001    0.7500000000000000 Al
   0.6598660000000000    0.8290280000000000    0.7500000000000000 Al
   0.8306870000000000    0.6614200000000000    0.2500000000000000 Al
   0.8301330000000000    0.1724750000000000    0.2500000000000000 Cu
   0.3423219999999990    0.1724550000000000    0.2500000000000000 Cu
   0.0007800000000000    0.0015620000000000    0.5000479999999990 Cu
   0.0007800000000000    0.0015620000000000    0.9999520000000000 Cu
