bcc_Al3_Cu0_Nb6_Ni0_Ta6_W0_Zr9          
   1.00000000000000     
    10.6198465188243532    0.0000000000000000    0.0000000000000000
     0.0000000000000000    6.9298525311920107   -0.0291823596743641
     0.0000000000000000   -0.0316562964282946    6.3946932480448426
   Al   Nb   Ta   Zr
     3     6     6     9
Direct
  0.1666666666666643  0.2513821183154560  0.7483442958690881
  0.5000000000000000  0.2513821183154560  0.7483442958690881
  0.8333333333333357  0.2513821183154560  0.7483442958690881
  0.1666666666666643  0.7482701796518102  0.2533721895929056
  0.5000000000000000  0.7482701796518102  0.2533721895929056
  0.8333333333333357  0.7482701796518102  0.2533721895929056
  0.0000000000000000  0.0063671726831642  0.0139427178638021
  0.3333333333333357  0.0063671726831642  0.0139427178638021
  0.6666666666666643  0.0063671726831642  0.0139427178638021
  0.0000000000000000  0.4944387195734218  0.4839581296260708
  0.3333333333333357  0.4944387195734218  0.4839581296260708
  0.6666666666666643  0.4944387195734218  0.4839581296260708
  0.1666666666666643  0.2485940524966978  0.2486180688320618
  0.5000000000000000  0.2485940524966978  0.2486180688320618
  0.8333333333333357  0.2485940524966978  0.2486180688320618
  0.0000000000000000  0.0059274467238107  0.4930546706494011
  0.3333333333333357  0.0059274467238107  0.4930546706494011
  0.6666666666666643  0.0059274467238107  0.4930546706494011
  0.0000000000000000  0.4943346211730279  0.0072574013955534
  0.3333333333333357  0.4943346211730279  0.0072574013955534
  0.6666666666666643  0.4943346211730279  0.0072574013955534
  0.1666666666666643  0.7506856893826114  0.7514525261711168
  0.5000000000000000  0.7506856893826114  0.7514525261711168
  0.8333333333333357  0.7506856893826114  0.7514525261711168
 
  0.00000000E+00  0.00000000E+00  0.00000000E+00
  0.00000000E+00  0.00000000E+00  0.00000000E+00
  0.00000000E+00  0.00000000E+00  0.00000000E+00
  0.00000000E+00  0.00000000E+00  0.00000000E+00
  0.00000000E+00  0.00000000E+00  0.00000000E+00
  0.00000000E+00  0.00000000E+00  0.00000000E+00
  0.00000000E+00  0.00000000E+00  0.00000000E+00
  0.00000000E+00  0.00000000E+00  0.00000000E+00
  0.00000000E+00  0.00000000E+00  0.00000000E+00
  0.00000000E+00  0.00000000E+00  0.00000000E+00
  0.00000000E+00  0.00000000E+00  0.00000000E+00
  0.00000000E+00  0.00000000E+00  0.00000000E+00
  0.00000000E+00  0.00000000E+00  0.00000000E+00
  0.00000000E+00  0.00000000E+00  0.00000000E+00
  0.00000000E+00  0.00000000E+00  0.00000000E+00
  0.00000000E+00  0.00000000E+00  0.00000000E+00
  0.00000000E+00  0.00000000E+00  0.00000000E+00
  0.00000000E+00  0.00000000E+00  0.00000000E+00
  0.00000000E+00  0.00000000E+00  0.00000000E+00
  0.00000000E+00  0.00000000E+00  0.00000000E+00
  0.00000000E+00  0.00000000E+00  0.00000000E+00
  0.00000000E+00  0.00000000E+00  0.00000000E+00
  0.00000000E+00  0.00000000E+00  0.00000000E+00
  0.00000000E+00  0.00000000E+00  0.00000000E+00
