bcc_Al9_Cu0_Nb0_Ni6_Ta9_W0_Zr0          
   1.00000000000000     
    11.8509620553043185    0.0000000000000000    0.0000000000000000
     0.0000000000000000    5.3888895645600732   -0.6514686341452359
     0.0000000000000000   -0.6043428074449264    5.7911121607165335
   Al   Ni   Ta
     9     6     9
Direct
 -0.0000000000000000  0.0085625029134451  0.4935114678497036
  0.3333333333333357  0.0085625029134451  0.4935114678497036
  0.6666666666666643  0.0085625029134451  0.4935114678497036
  0.1666666666666643  0.7231174789173593  0.2024541745563137
  0.5000000000000000  0.7231174789173592  0.2024541745563137
  0.8333333333333357  0.7231174789173592  0.2024541745563137
 -0.0000000000000000  0.5253995621571338  0.5536549390245256
  0.3333333333333357  0.5253995621571338  0.5536549390245256
  0.6666666666666643  0.5253995621571338  0.5536549390245256
  0.1666666666666643  0.8023712832819742  0.6377189807445423
  0.5000000000000000  0.8023712832819742  0.6377189807445420
  0.8333333333333357  0.8023712832819742  0.6377189807445423
 -0.0000000000000000  0.4638544301263990  0.0696669810079661
  0.3333333333333357  0.4638544301263990  0.0696669810079661
  0.6666666666666643  0.4638544301263990  0.0696669810079661
  0.1666666666666643  0.2381304996742277  0.2775130251801743
  0.5000000000000000  0.2381304996742277  0.2775130251801743
  0.8333333333333357  0.2381304996742277  0.2775130251801743
 -0.0000000000000000 -0.0662361719768503 -0.0350509246093522
  0.3333333333333357 -0.0662361719768503 -0.0350509246093522
  0.6666666666666643 -0.0662361719768503 -0.0350509246093522
  0.1666666666666643  0.3048004149063107  0.8005313562461276
  0.5000000000000000  0.3048004149063107  0.8005313562461276
  0.8333333333333357  0.3048004149063107  0.8005313562461275
 
  0.00000000E+00  0.00000000E+00  0.00000000E+00
  0.00000000E+00  0.00000000E+00  0.00000000E+00
  0.00000000E+00  0.00000000E+00  0.00000000E+00
  0.00000000E+00  0.00000000E+00  0.00000000E+00
  0.00000000E+00  0.00000000E+00  0.00000000E+00
  0.00000000E+00  0.00000000E+00  0.00000000E+00
  0.00000000E+00  0.00000000E+00  0.00000000E+00
  0.00000000E+00  0.00000000E+00  0.00000000E+00
  0.00000000E+00  0.00000000E+00  0.00000000E+00
  0.00000000E+00  0.00000000E+00  0.00000000E+00
  0.00000000E+00  0.00000000E+00  0.00000000E+00
  0.00000000E+00  0.00000000E+00  0.00000000E+00
  0.00000000E+00  0.00000000E+00  0.00000000E+00
  0.00000000E+00  0.00000000E+00  0.00000000E+00
  0.00000000E+00  0.00000000E+00  0.00000000E+00
  0.00000000E+00  0.00000000E+00  0.00000000E+00
  0.00000000E+00  0.00000000E+00  0.00000000E+00
  0.00000000E+00  0.00000000E+00  0.00000000E+00
  0.00000000E+00  0.00000000E+00  0.00000000E+00
  0.00000000E+00  0.00000000E+00  0.00000000E+00
  0.00000000E+00  0.00000000E+00  0.00000000E+00
  0.00000000E+00  0.00000000E+00  0.00000000E+00
  0.00000000E+00  0.00000000E+00  0.00000000E+00
  0.00000000E+00  0.00000000E+00  0.00000000E+00
