Cu2 
1.0
2.5611081529470043e+00 0.0000000000000000e+00 0.0000000000000000e+00 
-1.2805607123023039e+00 2.2179854498951306e+00 0.0000000000000000e+00 
3.0332665020888627e-08 1.6741524578287184e-09 4.2162376031868805e+00 
Cu 
2 
Cartesian
  -0.0000031358    1.4786621423    1.0540594008
   1.2805518873    0.7393299632    3.1621824186
