Al1 
1.0
2.8250388127302952e+00 0.0000000000000000e+00 0.0000000000000000e+00 
-9.4167960422873920e-01 2.6634721354666442e+00 0.0000000000000000e+00 
-9.4167960423103925e-01 -1.3317360677365746e+00 2.3066345315802934e+00 
Al 
1 
Cartesian
   0.0000000000    0.0000000000    0.0000000000
