POSCAR file written by OVITO Basic 3.9.4
1
7.1693306506 0.0 0.0
0.0058411223 7.1091015224 0.0
-0.1161330027 0.0851671999 18.4807003738
Al Cu Ni Zr Nb Ta 
10 9 11 17 13 4 
Cartesian
3.6456558157 3.5525992091 16.1916617055
5.217163296 1.7678753223 9.6089947055
1.9105226329 3.337325807 11.2700617055
4.8314454786 6.8082639823 11.5634217055
5.186051022 3.5215794909 11.0360817055
7.0127887611 2.1581462162 15.6186817055
6.9364612621 5.1944354112 11.1724617055
6.8701166221 5.5795236025 14.8470617055
3.7645949367 1.8537437161 11.4961017055
3.662469558 5.335066421 10.8941017055
6.9764985591 7.0343282388 7.4640094055
1.7711337515 1.791853915 3.6968594055
5.2283937515 1.809063915 7.4323694055
5.2159637515 3.545893915 1.9457394055
6.9629482021 5.303323915 5.5544194055
6.9513177977 6.9856328952 12.7430417055
6.9842699922 3.5027228681 10.0678177055
5.5701344419 5.2126800543 12.9928317055
5.4778154484 3.4675818495 14.8947717055
0.0171152591 7.0705477388 3.7397294055
3.4150937515 -0.010484285 7.4712594055
3.4815237515 0.014600015 3.7653594055
3.4634137515 3.503743915 3.7623594055
5.2033337515 1.732343915 3.6894094055
1.7027237515 0.032355615 1.8838094055
1.7326837515 3.527693915 1.9202594055
1.7639937515 3.578113915 5.5521394055
5.2448085591 7.0412652388 5.5942894055
3.5301037515 1.734433915 1.8537594055
3.4693137515 1.714243915 5.6242494055
-0.1009892485 3.556423915 7.4370394055
7.0325502021 3.561993915 3.7463794055
3.5086837515 3.524103915 0.0341337055
1.7658937515 1.805873915 0.0395385055
1.7624537515 5.336433915 3.02055e-05
1.7498937515 5.294663915 3.7431394055
5.2669537515 5.327923915 7.4865894055
1.7515837515 7.037453915 5.5930794055
5.2815637515 0.046905095 1.9242694055
5.2251937515 3.501633915 5.6280494055
-0.0056922485 1.785853915 1.8950394055
3.4900437515 5.354233915 5.5877094055
3.6446086269 6.8876779034 16.4661417055
3.1405095368 0.1985960006 13.2208917055
1.7729004887 5.2493223355 12.7685317055
5.5038385804 1.7040860065 12.9504017055
5.451762956 0.1023516831 14.4171317055
6.7237744288 6.8790050044 16.4812917055
7.028428086 3.514331357 12.9915717055
3.7676582087 3.8916837431 12.7704517055
1.7888432047 2.0233959482 9.6301507055
1.782648153 2.3240978838 12.9647017055
1.6301696288 5.2519136869 16.3741517055
5.4292043554 5.3643266978 9.4865894055
1.6772344056 7.0986196371 10.8985817055
1.3694685423 0.2120815458 14.9569317055
1.3856265682 3.7385836479 15.0865917055
7.0191991227 1.5303220362 11.0414517055
3.5065167157 1.9900430576 14.7059517055
4.1568503442 5.2348834408 14.6923817055
5.2447637515 5.294733915 3.7373894055
6.9896437515 1.765323915 5.6029894055
7.0683414021 5.309883915 1.8544894055
3.5249337515 5.307623915 1.9029194055
