Al6 Cu6 Nb6 W6 
1.0
1.0146255498180402e+01 0.0000000000000000e+00 0.0000000000000000e+00 
-9.0543133119569652e-05 6.0192406241762306e+00 0.0000000000000000e+00 
-1.1665340320750897e-05 9.3693165166242348e-02 5.9764365949254765e+00 
Al Cu Nb W 
6 6 6 6 
Cartesian
   3.3820689253    0.1868706503    5.8550850499
   1.6909690822    4.6080899300    4.4093013674
   5.0730508662    4.6080899300    4.4093013674
  -0.0000127470    0.1868700484    5.8550850499
   6.7641608555    0.1868706503    5.8550850499
   8.4551326502    4.6080899300    4.4093013674
   3.3820755317    0.0562185331    3.1506100326
   1.6910156332    1.5054053249    4.4795125446
   5.0730974172    1.5054053249    4.4795125446
  -0.0000061598    0.0562184729    3.1506100326
   6.7641674619    0.0562185933    3.1506100326
   8.4551792012    1.5054053249    4.4795125446
   1.6909749004    4.5545226916    1.4884554397
   1.6910206318    1.5090123136    1.5350835980
   5.0730566844    4.5545226916    1.4884554397
   5.0731024158    1.5090123136    1.5350835980
   8.4551384683    4.5545226916    1.4884554397
   8.4551841998    1.5090123136    1.5350835980
   3.3820251370    3.0910619867    5.9148553923
   3.3820311985    3.0150126820    3.0492855266
  -0.0000565983    3.0910619867    5.9148553923
  10.1462049127    3.0150126820    3.0492855266
   6.7641170673    3.0910619867    5.9148553923
   6.7641231287    3.0150126820    3.0492855266
