Converted from final.data
1.0
15.5736485608562223 0.0000000000000000 0.0000000000000000
0.4667503829789791 15.2673049362128186 0.0000000000000000
0.1260971120965660 -0.2526961892010493 32.8455090012338076
Al Zr Nb W Ta Ni
7 20 6 11 5 14
Direct
0.9325329947771238 -0.0190198476668578 0.0257980811450355
-0.0003650262172209 0.3533752463734695 0.0182630552863128
0.1488569564053158 0.1739509298077849 0.0944902055287281
0.1713233581129927 0.3500800648676783 -0.0126101368426358
0.4544385183444861 0.0403529497499024 0.2936707900501429
0.5786307216666153 0.3968222758526652 0.0743957293387037
0.5853735320076514 0.2447264177564569 0.1793139615744147
-0.0214415072276172 0.2600329627332903 0.0954926835520658
0.9976311211598803 0.4667289359814608 0.2518160552130091
0.3942880296909668 0.4429092790914067 0.0984828078370498
0.9983908761197786 0.1658528870851639 0.2415386935002810
0.4969117675400427 0.2408174099323881 0.1026864410693886
0.2206978335144414 0.0088588378915254 0.0819049890820832
0.1089111260332133 0.0382787089329833 0.2350735562123643
0.2791424759992445 0.4217874585597536 0.2453534447293426
0.3025368955603244 0.2773248321049591 0.0821722256765792
0.0635306250788194 -0.0149640094004202 -0.0068965771575754
0.3075897616595678 -0.0077797824270871 0.0003878467139212
0.3163663335137497 0.2092984134091197 -0.0086572102562170
0.3892576747823123 0.2930105288554492 0.1808907437923135
0.4983695323686242 0.0657340447696483 0.1660890428725321
0.5528601779848865 0.4307999851241345 0.1602740822340047
0.1178973963593223 0.1886779960802609 0.0073008636869355
0.2683922718285310 0.0855007800510949 0.2966238876214181
0.3889831895546257 0.2406141533374191 0.4293973068064624
0.4066952637826903 0.2153290510372521 0.3337805083869068
0.3170126551648699 0.4616548954175448 0.3973557990047754
0.3582020601211546 0.0872436573197934 0.2208523228340891
0.2245052712680808 0.4679794347909572 0.1411499160341653
0.3446125801865256 0.1366776063028229 0.1314896708023247
0.9717562883981271 0.1763282367167260 -0.0033604645044855
0.0088860160090455 0.0692321415590381 0.0686824519581129
0.0885172432926211 0.3239705708399586 0.2350687090574957
0.2100788116088708 0.0866234650222921 0.1677659929465712
0.2132329700920428 0.1986339466361485 0.2286533778282310
0.0851948693439834 0.0627413292034122 0.4072186337597526
0.1074331882306213 0.4342544071626223 0.2909147704744643
0.2154357820287049 0.3060547535366914 0.3030192325783175
0.4781276367990664 0.3439989491662157 0.2654772694975829
-0.0191073986366007 0.1237190872871430 0.3369393115127015
0.0148405456248924 0.3080815211223213 0.3218004085565256
0.0694327729687075 0.0388281700203536 0.1397132405394211
0.0562241450468511 0.3429170200642613 0.4534306476941644
0.1825742579707052 0.2202091577074295 0.4312985269105140
0.1534001147547820 0.1796281248739198 0.3545171621366934
0.0426416703288551 0.1514616979657313 0.4768803829552583
0.1235048604561066 0.3767552459640406 0.3804498214527401
0.8066103936382022 0.4420309833878099 0.2532605354083272
0.6432894096230620 0.3505569504516133 0.2382675840413965
0.0721115873581836 0.1875631684531530 0.1790280689102262
0.4233183694929256 0.0717186380878077 0.4638858867178050
0.2404359260878836 0.4573953828653156 0.3263876226465007
0.0975354101521063 0.1821869576416295 0.2837961860502415
0.1564655161556107 0.4790462743596438 0.4450628281268715
0.4786554665776112 0.3455179797377006 0.3808904836810035
0.4874233947328345 0.1061755733861804 0.3842967631800978
0.0277254824099813 0.2266382205408119 0.3981142757468764
0.2759701702128261 0.3032225467423997 0.3723369791299481
0.3077158566940828 0.1316185370335809 0.3820565415889609
0.3962994490427314 0.3961935980116741 0.4770097434242552
0.0179619656460713 0.4939671431368308 0.4208294648770435
-0.0009196789123046 0.4699559241442603 0.3459333845282493
0.3540528843719203 0.2534775897401833 0.2568760587674503
