Al10 Nb20 
1.0
5.1922978863843730e+00 0.0000000000000000e+00 0.0000000000000000e+00 
5.6221352597394733e-08 9.9665873307780881e+00 0.0000000000000000e+00 
9.8258182999751198e-09 1.1907150025312007e-04 9.9665296453759353e+00 
Al Nb 
10 20 
Cartesian
   0.0000000650    0.0012628962    0.0000001353
   2.5961489609    2.3818168417    4.3218958820
   2.5961489699    4.3219493518    2.3817514220
   2.5961489762    4.9833532011    4.9832648227
   5.1922979414    9.3052456427    2.6015134007
   0.0000000821    7.3650667742    0.6613679441
   0.0000000264    0.6614597629    7.3650162447
   5.1922979102    2.6016396281    9.3051607046
   2.5961489915    7.5848895606    5.6446337634
   2.5961489825    5.6447570505    7.5847782234
   0.0000000432    3.9244903130    3.9244207132
   0.0000000359    4.6245914452    1.2715198856
   0.0000000214    1.2715824952    4.6245494877
   1.3076958115    1.8037745247    1.8037425352
   3.8846020988    1.8037745247    1.8037425352
   2.5961489945    8.9077497429    1.0588441095
   2.5961489788    6.2548251962    0.3587243049
   2.5961490010    9.6079042977    3.7117449371
   3.9038447842    6.7870846267    3.1795222875
   1.2884531850    6.7870846267    3.1795222875
   2.5961489579    1.0589566594    8.9076855359
   2.5961489736    3.7118812061    9.6078043438
   2.5961489514    0.3588011079    6.2547847083
   3.9038447674    3.1796217756    6.7870073579
   1.2884531682    3.1796217756    6.7870073579
   0.0000001372    6.0422160893    6.0421089322
   5.1922979251    5.3421149571    8.6950097597
   5.1922979407    8.6951239071    5.3419801577
   1.3076958537    8.1629318776    8.1627871102
   3.8846021409    8.1629318776    8.1627871102
