Ta17 Al12
1.0
  -4.9909859999999995    4.9909859999999995    4.9909859999999995
   4.9909859999999995   -4.9909859999999995    4.9909859999999995
   4.9909859999999995    4.9909859999999995   -4.9909859999999995
Ta Al
17 12
direct
   0.0000000000000000    0.0000000000000000    0.0000000000000000 Ta
   0.6448780000000000    0.0000000000000000    0.0000000000000000 Ta
   0.0000000000000000    0.6448780000000000    0.0000000000000000 Ta
   0.0000000000000000    0.0000000000000000    0.6448780000000000 Ta
   0.3551220000000000    0.3551220000000000    0.3551220000000000 Ta
   0.4068970000000000    0.6778189999999999    0.0000000000000000 Ta
   0.7290780000000000    0.3221810000000000    0.3221810000000000 Ta
   0.4068970000000000    0.0000000000000000    0.6778189999999999 Ta
   0.6778189999999999    0.4068970000000000    0.0000000000000000 Ta
   0.0000000000000000    0.4068970000000000    0.6778189999999999 Ta
   0.3221810000000000    0.7290780000000000    0.3221810000000000 Ta
   0.3221810000000000    0.3221810000000000    0.7290780000000000 Ta
   0.0000000000000000    0.6778189999999999    0.4068970000000000 Ta
   0.6778189999999999    0.0000000000000000    0.4068970000000000 Ta
   0.5931029999999990    0.5931029999999990    0.2709220000000000 Ta
   0.2709220000000000    0.5931029999999990    0.5931029999999990 Ta
   0.5931029999999990    0.2709220000000000    0.5931029999999990 Ta
   0.3676460000000000    0.1864589999999990    0.0000000000000000 Al
   0.1811859999999990    0.8135410000000000    0.8135410000000000 Al
   0.3676460000000000    0.0000000000000000    0.1864589999999990 Al
   0.1864589999999990    0.3676460000000000    0.0000000000000000 Al
   0.0000000000000000    0.3676460000000000    0.1864589999999990 Al
   0.8135410000000000    0.1811859999999990    0.8135410000000000 Al
   0.8135410000000000    0.8135410000000000    0.1811859999999990 Al
   0.0000000000000000    0.1864589999999990    0.3676460000000000 Al
   0.1864589999999990    0.0000000000000000    0.3676460000000000 Al
   0.6323540000000000    0.6323540000000000    0.8188139999999990 Al
   0.8188139999999990    0.6323540000000000    0.6323540000000000 Al
   0.6323540000000000    0.8188139999999990    0.6323540000000000 Al
