Ni3 Ta1 
1.0
3.6469151213677735e+00 0.0000000000000000e+00 0.0000000000000000e+00 
2.6910376294892585e-04 3.6469307011050449e+00 0.0000000000000000e+00 
-1.8240740825280801e+00 -1.8233525020336985e+00 3.7437712512353496e+00 
Ni Ta 
3 1 
Cartesian
  -0.0004382038    0.0001566117    3.7437712512
   1.8232712824    0.0000965405    1.8718856256
  -0.0001064320    1.8235363625    1.8718856256
   3.6471476485    3.6468941270    0.0000002152
