bcc_Al0_Cu3_Nb9_Ni9_Ta3_W0_Zr0          
   1.00000000000000     
    10.3457735108255608    0.0000000000000000    0.0000000000000000
     0.0000000000000000    5.8204377480568050   -0.0646409861627412
     0.0000000000000000   -0.0651186665045753    5.8516865667764755
   Cu   Nb   Ni   Ta
     3     9     9     3
Direct
  0.0000000000000000  0.5099995739012310  0.0202427569224679
  0.3333333333333357  0.5099995739012310  0.0202427569224679
  0.6666666666666643  0.5099995739012310  0.0202427569224679
  0.1666666666666643  0.2510975569402903  0.7440232204705001
  0.5000000000000000  0.2510975569402903  0.7440232204705001
  0.8333333333333357  0.2510975569402903  0.7440232204705001
  0.1666666666666643  0.7388214741426049  0.7249688577767067
  0.5000000000000000  0.7388214741426049  0.7249688577767067
  0.8333333333333357  0.7388214741426049  0.7249688577767067
  0.1666666666666643  0.2684265414884891  0.2705508032425432
  0.5000000000000000  0.2684265414884891  0.2705508032425432
  0.8333333333333357  0.2684265414884891  0.2705508032425432
  0.0000000000000000 -0.0232771054506065  0.4919560155223934
  0.3333333333333357 -0.0232771054506065  0.4919560155223934
  0.6666666666666643 -0.0232771054506065  0.4919560155223934
  0.1666666666666643  0.7448133704718776  0.2531349198168914
  0.5000000000000000  0.7448133704718776  0.2531349198168914
  0.8333333333333357  0.7448133704718776  0.2531349198168914
  0.0000000000000000  0.5289580952609763  0.4728077086562265
  0.3333333333333357  0.5289580952609763  0.4728077086562265
  0.6666666666666643  0.5289580952609763  0.4728077086562265
  0.0000000000000000 -0.0188395067548626  0.0223157175922711
  0.3333333333333357 -0.0188395067548626  0.0223157175922711
  0.6666666666666643 -0.0188395067548626  0.0223157175922711
 
  0.00000000E+00  0.00000000E+00  0.00000000E+00
  0.00000000E+00  0.00000000E+00  0.00000000E+00
  0.00000000E+00  0.00000000E+00  0.00000000E+00
  0.00000000E+00  0.00000000E+00  0.00000000E+00
  0.00000000E+00  0.00000000E+00  0.00000000E+00
  0.00000000E+00  0.00000000E+00  0.00000000E+00
  0.00000000E+00  0.00000000E+00  0.00000000E+00
  0.00000000E+00  0.00000000E+00  0.00000000E+00
  0.00000000E+00  0.00000000E+00  0.00000000E+00
  0.00000000E+00  0.00000000E+00  0.00000000E+00
  0.00000000E+00  0.00000000E+00  0.00000000E+00
  0.00000000E+00  0.00000000E+00  0.00000000E+00
  0.00000000E+00  0.00000000E+00  0.00000000E+00
  0.00000000E+00  0.00000000E+00  0.00000000E+00
  0.00000000E+00  0.00000000E+00  0.00000000E+00
  0.00000000E+00  0.00000000E+00  0.00000000E+00
  0.00000000E+00  0.00000000E+00  0.00000000E+00
  0.00000000E+00  0.00000000E+00  0.00000000E+00
  0.00000000E+00  0.00000000E+00  0.00000000E+00
  0.00000000E+00  0.00000000E+00  0.00000000E+00
  0.00000000E+00  0.00000000E+00  0.00000000E+00
  0.00000000E+00  0.00000000E+00  0.00000000E+00
  0.00000000E+00  0.00000000E+00  0.00000000E+00
  0.00000000E+00  0.00000000E+00  0.00000000E+00
