Ta22 Al8
1.0
   5.1844941400000000    0.0000000000000000    0.0000000000000000
   0.0000000000000000    9.9784916100000007    0.0116202200000000
   0.0000000000000000    0.0798624000000000   10.0582609200000004
Ta Al
22 8
direct
   0.2498099300000000    0.3187877500000000    0.6844126500000001 Ta
   0.2498099300000000    0.6812122500000000    0.3155873500000000 Ta
   0.7460663200000001    0.8181859600000000    0.8210359400000000 Ta
   0.7460663200000001    0.1818140400000000    0.1789640600000000 Ta
   0.7501900700000000    0.6812122500000000    0.3155873500000000 Ta
   0.7501900700000000    0.3187877500000000    0.6844126500000001 Ta
   0.2539336800000000    0.1818140400000000    0.1789640600000000 Ta
   0.2539336800000000    0.8181859600000000    0.8210359400000000 Ta
   0.5000000000000000    0.1033608100000000    0.8968234700000001 Ta
   0.5000000000000000    0.8966391900000000    0.1031765300000000 Ta
  -0.0000000000000000    0.6027814600000000    0.6023042000000000 Ta
  -0.0000000000000000    0.3972185400000000    0.3976958000000000 Ta
   0.5000000000000000    0.0360247600000000    0.6297765100000000 Ta
   0.5000000000000000    0.9639752400000000    0.3702234900000000 Ta
  -0.0000000000000000    0.5362692300000000    0.8735295700000000 Ta
  -0.0000000000000000    0.4637307700000000    0.1264704300000000 Ta
   0.5000000000000000    0.6283386100000000    0.0359906700000000 Ta
   0.5000000000000000    0.3716613900000000    0.9640093300000000 Ta
  -0.0000000000000000    0.8710681700000000    0.5370303300000000 Ta
  -0.0000000000000000    0.1289318300000000    0.4629696700000000 Ta
   0.5000000000000000    0.7584208900000000    0.5659082400000001 Ta
   0.5000000000000000    0.2415791100000000    0.4340917600000000 Ta
  -0.0000000000000000    0.2626219800000000    0.9346217999999999 Al
  -0.0000000000000000    0.7373780200000000    0.0653782000000000 Al
   0.5000000000000000    0.5662975100000001    0.7639534000000000 Al
   0.5000000000000000    0.4337024900000000    0.2360466000000000 Al
  -0.0000000000000000    0.9327545300000000    0.2601565900000000 Al
  -0.0000000000000000    0.0672454700000000    0.7398434100000000 Al
   0.5000000000000000    0.5000000000000000    0.5000000000000000 Al
  -0.0000000000000000   -0.0000000000000000    0.0000000000000000 Al
