Zr2 Al3 Ni1
1.0
   4.3938822999999996   -2.6361541300000000   -0.0027766900000000
   4.3938822999999996    2.6361541300000000   -0.0027766900000000
   2.8150021399999998    0.0000000000000000    4.2815053299999999
Zr Al Ni
2 3 1
direct
   0.6264109400000000    0.6264109400000000    0.6264109400000000 Zr
   0.3735890600000000    0.3735890600000000    0.3735890600000000 Zr
   0.0000000000000000    0.5000000000000000   -0.0000000000000000 Al
   0.5000000000000000    0.0000000000000000   -0.0000000000000000 Al
   0.0000000000000000    0.0000000000000000    0.5000000000000000 Al
   0.0000000000000000    0.0000000000000000   -0.0000000000000000 Ni
