Al2 Ni4 
1.0
4.0282004573865695e+00 0.0000000000000000e+00 0.0000000000000000e+00 
-2.0141000038645589e+00 3.4885243610791017e+00 0.0000000000000000e+00 
0.0000000000000000e+00 0.0000000000000000e+00 4.9508214470830323e+00 
Al Ni 
2 4 
Cartesian
   2.0141224587    1.1628402909    3.9955653997
   0.0000182768    2.3256840702    0.9552560474
   2.0141144023    1.1628402909    1.5508002609
   0.0000142486    2.3256840702    3.4000211862
  -2.0140441843    3.4885243611    2.4754107235
   2.0140762843    3.4885243611    4.9508214471
