fcc_Al8_Cu8_Nb0_Ni0_Ta8_W8_Zr0          
   1.00000000000000     
     6.8876184253150941    0.0000000000000000    0.0000000000000000
     0.0000000000000000    8.4171023913556340    0.0000000000000000
     0.0000000000000000    0.0000000000000000    8.5443482996374627
   Al   Cu   Ta   W 
     8     8     8     8
Direct
  0.5199175744368155  0.4962974667406908 -0.0115043803795240
  0.7300824255631845  0.7537025332593095 -0.0115043803795240
  0.5199175744368155  0.7537025332593095  0.2615043803795240
  0.7300824255631845  0.4962974667406908  0.2615043803795240
  0.5223318574093390 -0.0129426797343934  0.4923206680354266
  0.7276681425906610  0.2629426797343934  0.4923206680354266
  0.5223318574093390  0.2629426797343934  0.7576793319645737
  0.7276681425906610 -0.0129426797343934  0.7576793319645737
  0.5049423183731597  0.5119033736122206  0.5119725583355247
  0.7450576816268403  0.7380966263877794  0.5119725583355247
  0.5049423183731597  0.7380966263877794  0.7380274416644753
  0.7450576816268403  0.5119033736122206  0.7380274416644753
 -0.0051456403738553  0.5103325557500211  0.5021966464798050
  0.2551456403738553  0.7396674442499789  0.5021966464798050
 -0.0051456403738553  0.7396674442499789  0.7478033535201950
  0.2551456403738553  0.5103325557500211  0.7478033535201950
 -0.0216157881851608 -0.0100530337899758  0.5127408629914245
  0.2716157881851609  0.2600530337899758  0.5127408629914245
 -0.0216157881851608  0.2600530337899758  0.7372591370085755
  0.2716157881851609 -0.0100530337899758  0.7372591370085755
  0.0055917210767796 -0.0160639200198743 -0.0130667022344843
  0.2444082789232205  0.2660639200198743 -0.0130667022344843
  0.0055917210767796  0.2660639200198743  0.2630667022344845
  0.2444082789232205 -0.0160639200198743  0.2630667022344845
 -0.0210454614599116  0.5178581445301195 -0.0061907344862429
  0.2710454614599117  0.7321418554698805 -0.0061907344862429
 -0.0210454614599116  0.7321418554698805  0.2561907344862429
  0.2710454614599117  0.5178581445301195  0.2561907344862429
  0.4865043387393870 -0.0057064154010875 -0.0003917764636731
  0.7634956612606124  0.2557064154010874 -0.0003917764636731
  0.4865043387393870  0.2557064154010873  0.2503917764636729
  0.7634956612606124 -0.0057064154010875  0.2503917764636729
 
  0.00000000E+00  0.00000000E+00  0.00000000E+00
  0.00000000E+00  0.00000000E+00  0.00000000E+00
  0.00000000E+00  0.00000000E+00  0.00000000E+00
  0.00000000E+00  0.00000000E+00  0.00000000E+00
  0.00000000E+00  0.00000000E+00  0.00000000E+00
  0.00000000E+00  0.00000000E+00  0.00000000E+00
  0.00000000E+00  0.00000000E+00  0.00000000E+00
  0.00000000E+00  0.00000000E+00  0.00000000E+00
  0.00000000E+00  0.00000000E+00  0.00000000E+00
  0.00000000E+00  0.00000000E+00  0.00000000E+00
  0.00000000E+00  0.00000000E+00  0.00000000E+00
  0.00000000E+00  0.00000000E+00  0.00000000E+00
  0.00000000E+00  0.00000000E+00  0.00000000E+00
  0.00000000E+00  0.00000000E+00  0.00000000E+00
  0.00000000E+00  0.00000000E+00  0.00000000E+00
  0.00000000E+00  0.00000000E+00  0.00000000E+00
  0.00000000E+00  0.00000000E+00  0.00000000E+00
  0.00000000E+00  0.00000000E+00  0.00000000E+00
  0.00000000E+00  0.00000000E+00  0.00000000E+00
  0.00000000E+00  0.00000000E+00  0.00000000E+00
  0.00000000E+00  0.00000000E+00  0.00000000E+00
  0.00000000E+00  0.00000000E+00  0.00000000E+00
  0.00000000E+00  0.00000000E+00  0.00000000E+00
  0.00000000E+00  0.00000000E+00  0.00000000E+00
  0.00000000E+00  0.00000000E+00  0.00000000E+00
  0.00000000E+00  0.00000000E+00  0.00000000E+00
  0.00000000E+00  0.00000000E+00  0.00000000E+00
  0.00000000E+00  0.00000000E+00  0.00000000E+00
  0.00000000E+00  0.00000000E+00  0.00000000E+00
  0.00000000E+00  0.00000000E+00  0.00000000E+00
  0.00000000E+00  0.00000000E+00  0.00000000E+00
  0.00000000E+00  0.00000000E+00  0.00000000E+00
