Zr2 Cu6                                 
   1.00000000000000     
     2.8279339999999999   -4.8981250000000003    0.0000000000000000
     2.8279339999999999    4.8981250000000003    0.0000000000000000
     0.0000000000000000    0.0000000000000000    4.2436340000000001
   Zr   Cu
     2     6
Direct
  0.3333330000000032  0.6666669999999968  0.7500000000000000
  0.6666669999999968  0.3333330000000032  0.2500000000000000
  0.1512680000000017  0.3025359999999964  0.2500000000000000
  0.6974639999999965  0.8487319999999983  0.2500000000000000
  0.1512680000000017  0.8487319999999983  0.2500000000000000
  0.8487319999999983  0.6974639999999965  0.7500000000000000
  0.3025359999999964  0.1512680000000017  0.7500000000000000
  0.8487319999999983  0.1512680000000017  0.7500000000000000
 
  0.00000000E+00  0.00000000E+00  0.00000000E+00
  0.00000000E+00  0.00000000E+00  0.00000000E+00
  0.00000000E+00  0.00000000E+00  0.00000000E+00
  0.00000000E+00  0.00000000E+00  0.00000000E+00
  0.00000000E+00  0.00000000E+00  0.00000000E+00
  0.00000000E+00  0.00000000E+00  0.00000000E+00
  0.00000000E+00  0.00000000E+00  0.00000000E+00
  0.00000000E+00  0.00000000E+00  0.00000000E+00
