bcc_Al0_Cu3_Nb0_Ni0_Ta6_W6_Zr9          
   1.00000000000000     
     9.9235931047955503    0.0000000000000000    0.0000000000000000
     0.0000000000000000    6.7865249281235052   -0.0039413222722755
     0.0000000000000000   -0.0038045184798798    6.6313408276990948
   Cu   Ta   W    Zr
     3     6     6     9
Direct
  0.1666666666666643  0.7817759979282268  0.7433952347081899
  0.5000000000000000  0.7817759979282268  0.7433952347081899
  0.8333333333333357  0.7817759979282268  0.7433952347081899
  0.1666666666666643  0.2375129468298575  0.2530827099921785
  0.5000000000000000  0.2375129468298575  0.2530827099921785
  0.8333333333333357  0.2375129468298575  0.2530827099921785
  0.0000000000000000  0.0049613982289273 -0.0069011613630359
  0.3333333333333357  0.0049613982289273 -0.0069011613630359
  0.6666666666666643  0.0049613982289273 -0.0069011613630359
  0.1666666666666643  0.2149077953414531  0.7452577241063723
  0.5000000000000000  0.2149077953414531  0.7452577241063723
  0.8333333333333357  0.2149077953414531  0.7452577241063723
  0.0000000000000000  0.0159882637795433  0.4976216793212537
  0.3333333333333357  0.0159882637795433  0.4976216793212537
  0.6666666666666643  0.0159882637795433  0.4976216793212537
  0.0000000000000000  0.4905741825093176  0.5223897930743708
  0.3333333333333357  0.4905741825093176  0.5223897930743708
  0.6666666666666643  0.4905741825093176  0.5223897930743708
  0.0000000000000000  0.4906764916493065 -0.0146067614634873
  0.3333333333333357  0.4906764916493065 -0.0146067614634873
  0.6666666666666643  0.4906764916493065 -0.0146067614634873
  0.1666666666666643  0.7636029237333678  0.2597607816241579
  0.5000000000000000  0.7636029237333678  0.2597607816241579
  0.8333333333333357  0.7636029237333678  0.2597607816241579
 
  0.00000000E+00  0.00000000E+00  0.00000000E+00
  0.00000000E+00  0.00000000E+00  0.00000000E+00
  0.00000000E+00  0.00000000E+00  0.00000000E+00
  0.00000000E+00  0.00000000E+00  0.00000000E+00
  0.00000000E+00  0.00000000E+00  0.00000000E+00
  0.00000000E+00  0.00000000E+00  0.00000000E+00
  0.00000000E+00  0.00000000E+00  0.00000000E+00
  0.00000000E+00  0.00000000E+00  0.00000000E+00
  0.00000000E+00  0.00000000E+00  0.00000000E+00
  0.00000000E+00  0.00000000E+00  0.00000000E+00
  0.00000000E+00  0.00000000E+00  0.00000000E+00
  0.00000000E+00  0.00000000E+00  0.00000000E+00
  0.00000000E+00  0.00000000E+00  0.00000000E+00
  0.00000000E+00  0.00000000E+00  0.00000000E+00
  0.00000000E+00  0.00000000E+00  0.00000000E+00
  0.00000000E+00  0.00000000E+00  0.00000000E+00
  0.00000000E+00  0.00000000E+00  0.00000000E+00
  0.00000000E+00  0.00000000E+00  0.00000000E+00
  0.00000000E+00  0.00000000E+00  0.00000000E+00
  0.00000000E+00  0.00000000E+00  0.00000000E+00
  0.00000000E+00  0.00000000E+00  0.00000000E+00
  0.00000000E+00  0.00000000E+00  0.00000000E+00
  0.00000000E+00  0.00000000E+00  0.00000000E+00
  0.00000000E+00  0.00000000E+00  0.00000000E+00
