Al12 Zr3 Nb6 Ta3 
1.0
8.7118039408210510e+00 0.0000000000000000e+00 0.0000000000000000e+00 
-8.5083391500148067e-05 5.1238410231836831e+00 0.0000000000000000e+00 
3.3628008427276818e-04 2.2866453893937166e-01 9.5669897676596634e+00 
Al Zr Nb Ta 
12 3 6 3 
Cartesian
   2.9634465804    3.6118941005    2.3041425166
   2.9622145415    0.1454747149    4.7478100120
   1.4518933203    2.5652172731    0.0150953705
   8.6524287908    3.6118740624    2.3041616506
   8.6538625631    0.1454638011    4.7478100120
   1.4521958693    0.9700897506    7.0459635930
   4.3996646428    2.7643510699    4.8147502394
   5.8080736926    3.3380575743    7.2277555326
   7.2163302463    2.7643566510    4.8147693734
   4.4039608803    0.9353313691    7.1834508030
   5.8080243571    0.1635732497    4.8470866648
   7.2122544395    0.9353208928    7.1834412360
   1.4520809856    2.7168347216    4.6300499349
   2.9901753868    3.5130261873    7.1874402377
   8.6259720333    3.5130210635    7.1874402377
   1.4521168794    0.9443006271    2.3609991368
   4.3196252950    2.3478166649    0.0960803215
   5.8079616670    3.6768032634    2.5189597049
   7.2959347062    2.3478174424    0.0961128493
   0.0372362004    0.2547748758    9.4648238839
   2.8671952311    0.2547936328    9.4648047500
   4.3586128345    1.1312822833    2.5311002149
   7.2573959035    1.1312370834    2.5311384828
   5.8080558656    5.0758453779    9.4986718937
