Al3 Ni6 Cu9 Zr3 W3 
1.0
8.3985201641744016e+00 0.0000000000000000e+00 0.0000000000000000e+00 
7.1678563011044511e-05 4.2303883514778962e+00 0.0000000000000000e+00 
-1.9849851578821768e-03 2.2711804130169568e+00 9.3645030578010733e+00 
Al Ni Cu Zr W 
3 6 9 3 3 
Cartesian
   2.8726970546    1.3321745160    4.7296078209
   1.3983585437    2.2262052096    6.9147396934
   8.3232527230    1.3321867131    4.7292987923
   3.0633209408    3.8514774839    2.8159154340
   8.1328441477    3.8513664207    2.8155970409
   1.3982134768    3.9392044239    8.8864639057
   1.3986742406    3.3958372969    4.6903330950
   0.0639246894    4.3346861276    6.8738730020
   2.7329111451    4.3345959542    6.8739198245
   5.5980674171    3.7932852271    3.0172428852
   5.5980597315    1.4583549504    4.5799068750
   4.1390113849    3.4391804138    4.9621190673
   7.0569512366    3.4393330198    4.9621377963
   4.3480706682    3.9805572021    8.7593969637
   6.8469664467    3.9805461084    8.7589849256
   5.5975456462    4.2950168662    6.7150884882
   4.2730946248    2.1129785630    7.0695911159
   6.9219627449    2.1129318915    7.0693289099
   1.3990662751    1.7426867378    2.2411035073
   2.9117668366    3.7978359546    0.1816854061
   8.2869793893    3.7978440810    0.1813351737
   4.3672459362    1.7055158200    2.0444957656
   5.5997044010    3.8291505168    0.4581395831
   6.8290371274    1.7055010700    2.0437372408
