Nb1 Ni3                                 
   1.00000000000000     
     3.6832861868576825    0.0000000000000000   -0.0000000000000000
    -0.0000000000000000    3.6832861868576825   -0.0000000000000000
     0.0000000000000000    0.0000000000000000    3.6832861868576825
   Nb   Ni
     1     3
Direct
  0.0000000000000000  0.0000000000000000  0.0000000000000000
  0.0000000000000000  0.5000000000000000  0.5000000000000000
  0.5000000000000000  0.5000000000000000  0.0000000000000000
  0.5000000000000000  0.0000000000000000  0.5000000000000000
 
  0.00000000E+00  0.00000000E+00  0.00000000E+00
  0.00000000E+00  0.00000000E+00  0.00000000E+00
  0.00000000E+00  0.00000000E+00  0.00000000E+00
  0.00000000E+00  0.00000000E+00  0.00000000E+00
