W1 
1.0
2.7309933392599728e+00 0.0000000000000000e+00 0.0000000000000000e+00 
-9.1033111292294089e-01 2.5748052128606753e+00 0.0000000000000000e+00 
-9.1033111348146922e-01 -1.2874026064861901e+00 2.2298467239652999e+00 
W 
1 
Cartesian
   0.0000000000   -0.0000000000    0.0000000000
