Al1 Cu1 
1.0
3.0006564811354242e+00 0.0000000000000000e+00 0.0000000000000000e+00 
0.0000000000000000e+00 3.0006564811354242e+00 0.0000000000000000e+00 
0.0000000000000000e+00 0.0000000000000000e+00 3.0006564811354242e+00 
Al Cu 
1 1 
Cartesian
   3.0006564811    0.0000000000    0.0000000005
   1.5003282406    1.5003282406    1.5003282406
