Al12 Cu12 
1.0
1.1445642264906649e+01 0.0000000000000000e+00 0.0000000000000000e+00 
0.0000000000000000e+00 5.2206476788637710e+00 0.0000000000000000e+00 
0.0000000000000000e+00 0.0000000000000000e+00 5.4925013488809995e+00 
Al Cu 
12 12 
Cartesian
   1.9076108594    1.3051619197    4.1193760117
   1.9076108594    1.3051619197    1.3731253372
   3.8152102731    5.0336179758    2.7462506744
   3.8152102731    2.7973535425    0.0000000541
   0.0000000588    2.7973535425    0.0000000648
   5.7228211325    1.3051619197    4.1193760117
   5.7228211325    1.3051619197    1.3731253372
  11.4456422649    5.0336179758    2.7462506744
   9.5380314055    1.3051619197    4.1193760117
   9.5380314055    1.3051619197    1.3731253372
   7.6304319918    5.0336179758    2.7462506744
   7.6304319918    2.7973535425    0.0000000748
   1.9076108594    3.9154857591    1.3731253372
   3.8152102731    2.4905569610    2.7462506744
   3.8152102731    0.1197647901    0.0000000719
   1.9076108594    3.9154857591    4.1193760117
   5.7228211325    3.9154857591    4.1193760117
  11.4456422649    2.4905569610    2.7462506744
  11.4456422649    0.1197647901    0.0000000345
   5.7228211325    3.9154857591    1.3731253372
   9.5380314055    3.9154857591    1.3731253372
   7.6304319918    2.4905569610    2.7462506744
   7.6304319918    0.1197647901    0.0000000473
   9.5380314055    3.9154857591    4.1193760117
