Al6 Ni12 Cu3 Zr3 
1.0
1.2625171799585090e+01 0.0000000000000000e+00 0.0000000000000000e+00 
4.6445758345529866e-05 5.4659500966025645e+00 0.0000000000000000e+00 
1.7161042492010506e-04 6.5338453757928988e-02 4.5755787052462606e+00 
Al Ni Cu Zr 
6 12 3 3 
Cartesian
   4.2084329224    4.8567410155    0.1407480039
   4.2084257279    2.0929238869    0.5765046145
   8.4168247446    2.0929238869    0.5765046145
   8.4168319390    4.8567410155    0.1407480039
   0.0000396006    2.0929238869    0.5765046145
  12.6252183305    4.8567410155    0.1407480039
   2.1043589440    4.7980633836    3.1741887617
   2.1042625282    3.5205824693    0.8855163224
   4.2084830644    0.5670382416    2.4570308578
   2.1042376526    0.6089724127    0.8819107664
   6.3126489197    3.5205824693    0.8855163224
   6.3127453354    4.7980633836    3.1741887617
   6.3126240441    0.6089724127    0.8819107664
   8.4168820810    0.5670382416    2.4570308578
  12.6252684725    0.5670382416    2.4570308578
  10.5211317269    4.7980633836    3.1741887617
  10.5210353112    3.5205824693    0.8855163224
  10.5210104356    0.6089724127    0.8819107664
   4.2085108903    3.6152912344    2.5084969670
   8.4169099069    3.6152912344    2.5084969670
  12.6252962984    3.6152912344    2.5084969670
   2.1043324837    2.0002036306    3.1023384493
   6.3127188751    2.0002036306    3.1023384493
  10.5211052666    2.0002036306    3.1023384493
