Al1 Nb4 
1.0
1.1912558438405647e+01 0.0000000000000000e+00 0.0000000000000000e+00 
1.1486257550020945e+01 2.7825468638503308e+00 0.0000000000000000e+00 
4.2628013313564361e-01 -7.3676070924704629e-01 2.6832513039276629e+00 
Al Nb 
1 4 
Cartesian
  12.3386986694   -0.7367288496    2.6832164217
   5.0034336846   -0.0355484177    2.1486590969
   9.6944037895    0.6830845390    1.6006425836
  14.1304247376    1.3626660147    1.0826167701
  18.8213978265    2.0812938141    0.5346190395
