Cu6 Zr2 
1.0
5.8939415494188845e+00 0.0000000000000000e+00 0.0000000000000000e+00 
-2.9469707760876207e+00 4.6489770075853265e+00 0.0000000000000000e+00 
2.2648549083273040e-14 7.4186177290367962e-16 4.1361798461877530e+00 
Cu Zr 
6 2 
Cartesian
  -0.0000000005    1.5303409534    1.0340449615
   1.6852694409    3.8571121049    1.0340449615
  -1.6852753372    3.8571121049    1.0340449615
   2.9469707738    3.1186360542    3.1021348846
   1.2617013324    0.7918649027    3.1021348846
   4.6322461105    0.7918649027    3.1021348846
  -0.0000000010    3.2936979324    3.1021348846
   2.9469707743    1.3552790752    1.0340449615
