hcp_Al9_Cu0_Nb0_Ni6_Ta0_W9_Zr0          
   1.00000000000000     
     8.2423726792342453    0.0000000000000000    0.0000000000000000
     0.0000000000000000    4.7845194329209333   -0.0470067954855015
     0.0000000000000000   -0.0912140038844650    8.8421235136754781
   Al   Ni   W 
     9     6     9
Direct
  0.4912830717311230  0.5278205513962706 -0.0128987760957917
  0.6666669999999968  0.6796767948648067  0.2427801546952650
  0.8420499282688801  0.5278205513962706 -0.0128987760957917
  0.4837333577122656  0.1375680114191866  0.7633786786482902
  0.6666669999999968  0.0352108727159035  0.4912220621380823
  0.8495996422877378  0.1375680114191866  0.7633786786482902
  0.4749045090617178  0.4992633540511428  0.5126741468004207
  0.6666669999999968  0.6615000924015805  0.7442486053820099
  0.8584284909382855  0.4992633540511428  0.5126741468004207
  0.0068271532442931  0.6451508784221132  0.7542343388219320
  0.1666669999999968  0.5005647012003558  0.5076573052389451
  0.3265058467557101  0.6451508784221132  0.7542343388219320
  0.0113567460507893 -0.0208747689620544 -0.0006555991752304
  0.1666669999999968  0.1714911676959063  0.2567818016191440
  0.3219762539492140 -0.0208747689620544 -0.0006555991752304
  0.4927808733235216  0.1923004580292921  0.2362045384403769
  0.6666669999999968  0.0324161427965018 -0.0051173474556362
  0.8405521266764817  0.1923004580292921  0.2362045384403769
  0.0050661638217932  0.6777830117358143  0.2512524036307009
  0.1666669999999968  0.4586563428115452  0.0035641465783409
  0.3282668361782101  0.6777830117358143  0.2512524036307009
  0.0017430630603831 -0.0071772572656278  0.5013092411063085
  0.1666669999999968  0.1568194078610875  0.7478653274498342
  0.3315899369396202 -0.0071772572656278  0.5013092411063085
 
  0.00000000E+00  0.00000000E+00  0.00000000E+00
  0.00000000E+00  0.00000000E+00  0.00000000E+00
  0.00000000E+00  0.00000000E+00  0.00000000E+00
  0.00000000E+00  0.00000000E+00  0.00000000E+00
  0.00000000E+00  0.00000000E+00  0.00000000E+00
  0.00000000E+00  0.00000000E+00  0.00000000E+00
  0.00000000E+00  0.00000000E+00  0.00000000E+00
  0.00000000E+00  0.00000000E+00  0.00000000E+00
  0.00000000E+00  0.00000000E+00  0.00000000E+00
  0.00000000E+00  0.00000000E+00  0.00000000E+00
  0.00000000E+00  0.00000000E+00  0.00000000E+00
  0.00000000E+00  0.00000000E+00  0.00000000E+00
  0.00000000E+00  0.00000000E+00  0.00000000E+00
  0.00000000E+00  0.00000000E+00  0.00000000E+00
  0.00000000E+00  0.00000000E+00  0.00000000E+00
  0.00000000E+00  0.00000000E+00  0.00000000E+00
  0.00000000E+00  0.00000000E+00  0.00000000E+00
  0.00000000E+00  0.00000000E+00  0.00000000E+00
  0.00000000E+00  0.00000000E+00  0.00000000E+00
  0.00000000E+00  0.00000000E+00  0.00000000E+00
  0.00000000E+00  0.00000000E+00  0.00000000E+00
  0.00000000E+00  0.00000000E+00  0.00000000E+00
  0.00000000E+00  0.00000000E+00  0.00000000E+00
  0.00000000E+00  0.00000000E+00  0.00000000E+00
