Converted from final.data
1.0
34.5643261073050212 0.0000000000000000 0.0000000000000000
0.4860124558747038 15.7834957306576644 0.0000000000000000
-0.0571368883287805 0.4340229607614022 14.9266156743462375
Al W Ni Zr Nb Ta
16 17 2 8 8 12
Direct
-0.0010845260676598 0.4901706282334053 0.8614007113935058
0.0849386826830493 0.9784065124660764 0.4700928528868688
0.0732899309941744 0.4216960867886643 0.0662515870310037
0.0137606356125671 0.0382135045933259 0.5128001808346716
0.5501339567414164 0.4444675080322729 0.4238859512027722
0.3343450851624861 0.2392583743049079 0.4376068957468361
0.3273194912993531 0.0344051211608636 0.2376135231110056
0.4982342729344987 0.5898947269835934 0.2591755721442663
0.0477843010688923 0.3495697056540595 0.9423933369368291
0.0441587089741953 0.0934108804654015 0.1211694075863802
0.0387197955306469 0.8404738173946660 0.0787481924432150
0.4334898313351163 0.4240406364106749 0.4547792581016945
0.2082654313914498 0.0902938927152088 0.3069753980214389
0.1431522574091029 0.2256583172743539 0.4046327377359389
0.1498873830692662 0.6073070755839112 0.8673763966345979
0.3105915756794294 0.9264298949112045 0.2309343069633994
-0.0219121204898995 0.5300363819761127 0.4421696771990281
0.9879705246963754 0.2967480359560217 0.2221020834758725
0.3570674279669923 0.0104570211608271 0.9885116204163658
0.3579602764701226 0.7021716546942538 0.6276437100704285
0.3142841456045291 0.0057130263556523 0.0760206691225695
0.5770548835067786 0.8235195921332573 0.2052032289874968
0.4245432912276507 0.7878411684276214 0.0345351935219399
0.2206514500993223 0.1953520510444051 0.0082772944032424
0.1855886997222846 0.0671794913990299 0.1218665671102596
0.1623264154013020 -0.0201007552697709 -0.0331208889182174
0.2011591612088854 0.5198536432792340 0.2482053140169107
0.3645483123497645 0.0786730055933911 0.3932142117802815
0.2502405436587061 0.3294288220149036 0.8197141622478175
0.2652524053190664 0.1376971008134722 0.1206844698633317
0.2498577135808725 -0.0060817892974470 0.1791401969126028
0.1218320183525951 0.1273554698151789 0.0534850344839484
0.0168846222784537 0.1385223542806829 -0.0457511091741403
0.4411338751452261 0.8489966201985258 0.4532455417440206
0.3399560098850057 0.3321337774076361 0.2828162245552351
0.3787767744314755 0.3192779599547160 0.1209687787369780
0.1453119722078706 0.5247355229256674 0.5450492770836433
0.5716797848672005 0.5707421501052995 0.9922685709015661
0.2769042491669534 0.1803901626839128 0.3023667701808555
0.2423012350946812 0.1479322779362092 0.7006552822451735
0.8833406655515608 0.1350169453718798 0.6709671763752386
0.8128091808456076 -0.0151955452435809 0.0554306456051774
0.7726055230592146 0.3429603029920233 0.3354452127677761
-0.0118520412583206 0.1470199071075455 0.3314210838582233
0.9554741218347403 -0.0410839130046584 0.1764485683823733
0.8978894671863715 0.7240613307392879 0.1802662622578259
0.1171614904033980 0.1491548546872309 0.2239000015994625
0.2942114734249713 0.3073439704782851 0.1289657463867050
0.1622839131299087 0.6756278855592551 0.7001381868525225
0.1004311800982601 0.3579484921629593 0.4607010739857054
0.2617809423984684 0.4816900358886766 0.0454487193184808
0.0613294770112582 0.2484028265333978 0.0689865401126482
0.1469103892130246 0.3050180134516148 0.0035821164364634
0.4179775959866183 0.0435987729156735 0.2946241146703999
0.2399606799419449 0.0212565699518525 -0.0086425699280020
-0.0173167670039365 0.6142691240610576 0.7273352628674032
0.1178978613104052 0.4381679092933510 0.9393104539984397
-0.0219088569381777 0.1896265888235563 0.1137639734556984
0.2584496108369844 0.9523764461150194 0.7918901757609174
0.8466704099195210 0.8529697657257648 0.6419221803834136
0.7901213997831531 0.0511685341954766 0.2603577134387894
0.6918741267544574 0.2383527065692553 0.3933686865475625
0.6838588907022465 0.2390755691211611 0.1279453914236902
