Cu6 
1.0
2.5431294873687995e+00 0.0000000000000000e+00 0.0000000000000000e+00 
-1.2715367044518688e+00 2.2024130829424258e+00 0.0000000000000000e+00 
-9.3562963122552295e-06 -2.9247293881732130e-08 2.4962997379757070e+01 
Cu 
6 
Cartesian
   2.5427478332    0.0000002962    0.0365193674
   1.2716352563    0.7341369407   16.6131743122
   1.2715145636    2.2024130610   18.7075198664
   0.0000475809    1.4682761057   14.5252192854
   1.2716456113    0.7341369333   22.9115632181
   0.0000833696    1.4682760984   20.8172176639
