Ta1 Nb1                                 
   1.00000000000000     
     1.6579253343576765   -2.3478287983645756    0.0000000000000000
     1.6579253343576765    2.3478287983645756    0.0000000000000000
     0.0000000000000000    0.0000000000000000    4.6769570315084801
   Ta   Nb
     1     1
Direct
  0.5000000000000000  0.5000000000000000  0.5000000000000000
 -0.0000000000000000 -0.0000000000000000  0.0000000000000000
 
  0.00000000E+00  0.00000000E+00  0.00000000E+00
  0.00000000E+00  0.00000000E+00  0.00000000E+00
