Al8 Zr10 
1.0
8.4308369699839538e+00 0.0000000000000000e+00 0.0000000000000000e+00 
-4.2154344594016564e+00 7.3013494447191523e+00 0.0000000000000000e+00 
0.0000000000000000e+00 0.0000000000000000e+00 5.7742076724819071e+00 
Al Zr 
8 10 
Cartesian
  -2.6409816839    4.5743538379    1.4435519181
  -4.2151100492    7.3013494447    0.0000583501
  -1.5744368256    2.7270467163    4.3306557544
   3.1487484324    0.0000009684    4.3306557544
   1.5744359762    2.7269956068    1.4435519181
   2.6409791808    4.5743027285    4.3306557544
   1.0668558591    7.3013494447    1.4435519181
   0.0001678695    0.0000000077    2.8870460942
  -1.2115662883    2.0987363911    1.4435230471
  -3.0038011665    5.2027590806    4.3306268833
   2.4231739180    0.0000006621    1.4436096602
   1.2116204974    2.0985903641    4.3306268833
   1.7921439020    7.3013494447    4.3307134964
   0.0000019966    4.8675979357    2.8870980620
   3.0038494602    5.2026130536    1.4435230471
   0.0000188583    4.8675979357    0.0000053369
   4.2154342374    2.4337515091    2.8870980620
   4.2154426682    2.4337515091    0.0000053413
