Al4 Ni12 Cu4 Nb4 W8 
1.0
7.5782697566514505e+00 0.0000000000000000e+00 0.0000000000000000e+00 
4.1705213497671061e-05 7.8300382278317961e+00 0.0000000000000000e+00 
1.1102679468757200e-04 7.3852017143659604e-05 7.3543189915767950e+00 
Al Ni Cu Nb W 
4 12 4 4 8 
Cartesian
   7.3758851652    0.1256541630    3.5146143374
   2.0970685759    1.8319275474    3.5146143374
   7.3759269179    1.8319492750    5.6782844020
   2.0970921523    0.1256758906    5.6782844020
   3.8057250107    0.0881675657    0.0549933911
   5.6671242719    1.8693438788    0.0549933911
   3.8057605940    1.8693612373    1.7835841505
   5.6671408810    0.0881849242    1.7835841505
   0.0098022547    0.0461343433    0.0382860699
   1.8847794949    1.9113753562    0.0382859228
   0.0098390934    1.9113930503    1.8002931632
   1.8847961608    0.0461521157    1.8002931632
   3.7563602924    3.9130364609    3.7340083816
   5.7166417782    5.8745863176    3.7340083816
   3.7563967805    5.8746036389    5.4588903579
   5.7166573706    3.9130537822    5.4588903579
   3.8854424037    0.0538657789    3.6851830578
   5.5875164874    1.9037150507    3.6851830578
   3.8854797711    1.9037333526    5.5077156817
   5.5875341490    0.0538837675    5.5077156817
   7.5600575117    3.7584308462    3.5836419755
   1.9129400188    6.0291889125    3.5836419755
   7.5601001868    6.0292092537    5.6092567640
   1.9129585044    3.7584511874    5.6092567640
   3.9870955346    3.7686391493    7.2764808794
   5.4860134961    6.0190547763    7.2764808794
   3.9870266011    6.0190009505    1.9164178601
   5.4859205898    3.7685853236    1.9164178601
   7.4094332403    3.8299471394    0.1385009478
   2.0634602688    5.9576034270    0.1385002124
   7.4094681477    5.9576191084    1.7000758583
   2.0634725111    3.8299628207    1.7000758583
