fcc_Al4_Cu4_Nb4_Ni12_Ta0_W8_Zr0         
   1.00000000000000     
     7.5391455015260984    0.0000000000000000    0.0000000000000000
     0.0000000000000000    7.8366598048573222    0.0000000000000000
     0.0000000000000000    0.0000000000000000    7.4939405976093667
   Al   Cu   Nb   Ni   W 
     4     4     4    12     8
Direct
 -0.0287328315089479  0.0173104899018776  0.4780701644418922
  0.2787328315089478  0.2326895100981224  0.4780701644418922
 -0.0287328315089479  0.2326895100981224  0.7719298355581077
  0.2787328315089478  0.0173104899018776  0.7719298355581077
  0.5136207474485199  0.0071311495561760  0.5033138643887484
  0.7363792525514801  0.2428688504438240  0.5033138643887484
  0.5136207474485199  0.2428688504438240  0.7466861356112516
  0.7363792525514801  0.0071311495561760  0.7466861356112516
 -0.0013870598117613  0.4794031768813491  0.4911601855858933
  0.2513870598117612  0.7705968231186510  0.4911601855858933
 -0.0013870598117613  0.7705968231186510  0.7588398144141066
  0.2513870598117612  0.4794031768813491  0.7588398144141066
  0.5006235018165276  0.0166052462922507  0.0071654762400167
  0.7493764981834724  0.2333947537077493  0.0071654762400167
  0.5006235018165276  0.2333947537077493  0.2428345237599833
  0.7493764981834724  0.0166052462922507  0.2428345237599833
  0.0019193479896434  0.0043122647869370  0.0018250690006230
  0.2480806520103566  0.2456877352130630  0.0018250690006230
  0.0019193479896434  0.2456877352130630  0.2481749309993770
  0.2480806520103566  0.0043122647869370  0.2481749309993770
  0.4963015573871329  0.4995456025703757  0.5114999894377037
  0.7536984426128669  0.7504543974296244  0.5114999894377037
  0.4963015573871329  0.7504543974296244  0.7385000105622963
  0.7536984426128669  0.4995456025703757  0.7385000105622963
  0.5242224808119366  0.4792963518152721 -0.0096542165187360
  0.7257775191880634  0.7707036481847283 -0.0096542165187360
  0.5242224808119366  0.7707036481847283  0.2596542165187360
  0.7257775191880634  0.4792963518152721  0.2596542165187360
 -0.0231569177957884  0.4879412561022789  0.0165132500740542
  0.2731569177957883  0.7620587438977210  0.0165132500740542
 -0.0231569177957884  0.7620587438977210  0.2334867499259458
  0.2731569177957883  0.4879412561022789  0.2334867499259458
 
  0.00000000E+00  0.00000000E+00  0.00000000E+00
  0.00000000E+00  0.00000000E+00  0.00000000E+00
  0.00000000E+00  0.00000000E+00  0.00000000E+00
  0.00000000E+00  0.00000000E+00  0.00000000E+00
  0.00000000E+00  0.00000000E+00  0.00000000E+00
  0.00000000E+00  0.00000000E+00  0.00000000E+00
  0.00000000E+00  0.00000000E+00  0.00000000E+00
  0.00000000E+00  0.00000000E+00  0.00000000E+00
  0.00000000E+00  0.00000000E+00  0.00000000E+00
  0.00000000E+00  0.00000000E+00  0.00000000E+00
  0.00000000E+00  0.00000000E+00  0.00000000E+00
  0.00000000E+00  0.00000000E+00  0.00000000E+00
  0.00000000E+00  0.00000000E+00  0.00000000E+00
  0.00000000E+00  0.00000000E+00  0.00000000E+00
  0.00000000E+00  0.00000000E+00  0.00000000E+00
  0.00000000E+00  0.00000000E+00  0.00000000E+00
  0.00000000E+00  0.00000000E+00  0.00000000E+00
  0.00000000E+00  0.00000000E+00  0.00000000E+00
  0.00000000E+00  0.00000000E+00  0.00000000E+00
  0.00000000E+00  0.00000000E+00  0.00000000E+00
  0.00000000E+00  0.00000000E+00  0.00000000E+00
  0.00000000E+00  0.00000000E+00  0.00000000E+00
  0.00000000E+00  0.00000000E+00  0.00000000E+00
  0.00000000E+00  0.00000000E+00  0.00000000E+00
  0.00000000E+00  0.00000000E+00  0.00000000E+00
  0.00000000E+00  0.00000000E+00  0.00000000E+00
  0.00000000E+00  0.00000000E+00  0.00000000E+00
  0.00000000E+00  0.00000000E+00  0.00000000E+00
  0.00000000E+00  0.00000000E+00  0.00000000E+00
  0.00000000E+00  0.00000000E+00  0.00000000E+00
  0.00000000E+00  0.00000000E+00  0.00000000E+00
  0.00000000E+00  0.00000000E+00  0.00000000E+00
