Al8 Zr10 
1.0
8.4917635702352712e+00 0.0000000000000000e+00 0.0000000000000000e+00 
-4.2458277146534078e+00 7.3539650442325701e+00 0.0000000000000000e+00 
-6.6410300024648759e-17 1.6602517081087518e-17 5.7358159522623762e+00 
Al Zr 
8 10 
Cartesian
  -2.6139760981    4.5276230127    1.4339539881
   1.6318957238    2.8263420315    1.4339539881
  -4.2434974898    7.3539650442    0.0000000066
  -4.2434974898    7.3539650442    2.8679079761
  -1.6317265237    2.8263199696    4.3018619642
  -0.9796831515    7.3539650442    4.3018619642
   5.2257888005    0.0000000723    1.4339539881
   2.6141717543    4.5276450746    4.3018619642
   1.1541642509    1.9988959466    4.3018619642
  -1.1539753876    1.9988591768    1.4339539881
   1.9388510700    7.3539650442    4.3018619642
   0.0001039810    4.9026384602    2.8679079761
   0.0001039810    4.9026384602    0.0000000001
  -3.0916880986    5.3550690976    4.3018619642
   3.0919371944    5.3551058675    1.4339539881
   2.3073139104    0.0000002646    1.4339539881
   4.2459677428    2.4513265841    2.8679079761
   4.2459677428    2.4513265841    0.0000000007
