hcp_Al6_Cu0_Nb0_Ni3_Ta6_W9_Zr0          
   1.00000000000000     
     8.3395662303808180    0.0000000000000000    0.0000000000000000
     0.0000000000000000    4.8832719703040688    0.1084097604656169
     0.0000000000000000    0.2092392438573721    9.4671348092047083
   Al   Ni   Ta   W 
     6     3     6     9
Direct
 -0.0322131643842911  0.6671660848272096  0.7351193245368580
  0.1666669999999968  0.5330274983615197  0.5022713188877939
  0.3655461643842944  0.6671660848272096  0.7351193245368580
  0.5054374304053202  0.4823324559471890 -0.0045471525571281
  0.6666669999999968  0.6483091025201659  0.2922678258506885
  0.8278955695946830  0.4823324559471890 -0.0045471525571281
  0.5014122454049660  0.5214587545776318  0.5124378197817490
  0.6666669999999968  0.6601564732085836  0.7528212935185998
  0.8319207545950372  0.5214587545776318  0.5124378197817490
 -0.0124372897581629  0.0472505814391570  0.4948754920881907
  0.1666669999999968  0.1203195836811798  0.7473423312045394
  0.3457702897581661  0.0472505814391570  0.4948754920881907
 -0.0080596260904637  0.6591359154103402  0.2483331902924944
  0.1666669999999968  0.5020443380279431 -0.0288367031564955
  0.3413926260904670  0.6591359154103402  0.2483331902924944
  0.5100413679116231  0.1637508141379870  0.2517292410453498
  0.6666669999999968 -0.0324736759034565  0.0096215622488557
  0.8232916320883801  0.1637508141379870  0.2517292410453498
  0.5129233933640245  0.1786988644326769  0.7542627405744398
  0.6666669999999968 -0.0077027756830747  0.5160256753661097
  0.8204096066359787  0.1786988644326769  0.7542627405744398
 -0.0114838920024520 -0.0236426892050169 -0.0048685452407102
  0.1666669999999968  0.1840218926527500  0.2338024750374206
  0.3448168920024553 -0.0236426892050169 -0.0048685452407102
 
  0.00000000E+00  0.00000000E+00  0.00000000E+00
  0.00000000E+00  0.00000000E+00  0.00000000E+00
  0.00000000E+00  0.00000000E+00  0.00000000E+00
  0.00000000E+00  0.00000000E+00  0.00000000E+00
  0.00000000E+00  0.00000000E+00  0.00000000E+00
  0.00000000E+00  0.00000000E+00  0.00000000E+00
  0.00000000E+00  0.00000000E+00  0.00000000E+00
  0.00000000E+00  0.00000000E+00  0.00000000E+00
  0.00000000E+00  0.00000000E+00  0.00000000E+00
  0.00000000E+00  0.00000000E+00  0.00000000E+00
  0.00000000E+00  0.00000000E+00  0.00000000E+00
  0.00000000E+00  0.00000000E+00  0.00000000E+00
  0.00000000E+00  0.00000000E+00  0.00000000E+00
  0.00000000E+00  0.00000000E+00  0.00000000E+00
  0.00000000E+00  0.00000000E+00  0.00000000E+00
  0.00000000E+00  0.00000000E+00  0.00000000E+00
  0.00000000E+00  0.00000000E+00  0.00000000E+00
  0.00000000E+00  0.00000000E+00  0.00000000E+00
  0.00000000E+00  0.00000000E+00  0.00000000E+00
  0.00000000E+00  0.00000000E+00  0.00000000E+00
  0.00000000E+00  0.00000000E+00  0.00000000E+00
  0.00000000E+00  0.00000000E+00  0.00000000E+00
  0.00000000E+00  0.00000000E+00  0.00000000E+00
  0.00000000E+00  0.00000000E+00  0.00000000E+00
