Ni4 Nb2 
1.0
4.8228339876006983e+00 0.0000000000000000e+00 0.0000000000000000e+00 
2.4114169937948891e+00 4.1766967514866939e+00 0.0000000000000000e+00 
2.4114169938252110e+00 1.3922322505040967e+00 3.9378274612784749e+00 
Ni Nb 
4 2 
Cartesian
   4.8228339876    2.7844645010    0.4922284327
   4.8228339876    1.3922322505    2.4611421633
   3.6171254907    3.4805806262    2.4611421633
   6.0285424845    3.4805806262    2.4611421633
   2.4114169938    1.3922322505    0.9844568653
   7.2342509814    1.3922322505    3.9378274613
