Zr1 Al1 Ni2                             
   1.00000000000000     
     3.7526478673722656   -0.0000000039930265    2.1665929847579291
     1.2508819433895879    3.5380303893667824    2.1665929847579286
     0.0000000046155309    0.0000000032636737    4.3331849435271890
   Zr   Al   Ni
     1     1     2
Direct
  0.5000000000000000  0.5000000000000000  0.5000000000000000
  0.0000000000000000 -0.0000000000000000 -0.0000000000000000
  0.2500000000000000  0.2500000000000000  0.2500000000000000
  0.7500000000000000  0.7500000000000000  0.7500000000000000
 
  0.00000000E+00  0.00000000E+00  0.00000000E+00
  0.00000000E+00  0.00000000E+00  0.00000000E+00
  0.00000000E+00  0.00000000E+00  0.00000000E+00
  0.00000000E+00  0.00000000E+00  0.00000000E+00
