Al3 Cu1 
1.0
3.9213798125496089e+00 0.0000000000000000e+00 0.0000000000000000e+00 
0.0000000000000000e+00 3.9213798125496089e+00 0.0000000000000000e+00 
0.0000000000000000e+00 0.0000000000000000e+00 3.9213798125496089e+00 
Al Cu 
3 1 
Cartesian
   3.9213798125    1.9606899063    1.9606899063
   1.9606899063    3.9213798125    1.9606899063
   1.9606899063    1.9606899063    3.9213798125
   3.9213798125    3.9213798125    0.0000000049
