Al4 Cu16 
1.0
6.3114846138519365e+00 0.0000000000000000e+00 0.0000000000000000e+00 
0.0000000000000000e+00 6.3114846138519365e+00 0.0000000000000000e+00 
0.0000000000000000e+00 0.0000000000000000e+00 6.3114846138519365e+00 
Al Cu 
4 16 
Cartesian
   2.7730706833    5.9288129902    3.5384139305
   5.9288129902    3.5384139305    2.7730706833
   3.5384139305    2.7730706833    5.9288129902
   0.3826728859    0.3826728859    0.3826728859
   5.1032897372    1.9475474303    1.2081948767
   1.9475474303    1.2081948767    5.1032897372
   1.2081948767    5.1032897372    1.9475474303
   4.3639371836    4.3639371836    4.3639371836
   0.3056639376    5.5287153576    4.4240919434
   1.8873926704    3.4614075068    3.9385115632
   2.3729730507    5.0431349773    6.0058194140
   3.4614075068    3.9385115632    1.8873926704
   5.0431349773    6.0058194140    2.3729730507
   5.5287153576    4.4240919434    0.3056639376
   6.0058194140    2.3729730507    5.0431349773
   4.4240919434    0.3056639376    5.5287153576
   3.9385115632    1.8873926704    3.4614075068
   2.8500771071    0.7827692563    1.2683496365
   1.2683496365    2.8500771071    0.7827692563
   0.7827692563    1.2683496365    2.8500771071
