Al4                                     
   1.00000000000000     
     2.8490257396827841   -0.0000000000437350    0.0000000000000000
    -1.4245128749180871    2.4673290752250177   -0.0000000000000000
    -0.0000000000000000    0.0000000000000000    9.4155268531255807
   Al
     4
Direct
 -0.0000000000000000 -0.0000000000000000 -0.0000000000000000
  0.3333330000000032  0.6666669999999968  0.2500000000000000
 -0.0000000000000000 -0.0000000000000000  0.5000000000000000
  0.6666680000000014  0.3333330000000032  0.7500000000000000
 
  0.00000000E+00  0.00000000E+00  0.00000000E+00
  0.00000000E+00  0.00000000E+00  0.00000000E+00
  0.00000000E+00  0.00000000E+00  0.00000000E+00
  0.00000000E+00  0.00000000E+00  0.00000000E+00
