Converted from final.data
1.0
14.8525948551204188 0.0000000000000000 0.0000000000000000
-0.0240976495570033 15.8081131474990269 0.0000000000000000
-0.1651863987589995 0.2611731457703407 31.5483171816623198
Al Zr W Ta Ni
18 4 17 18 3
Direct
0.9911152683547240 0.7890621471284041 0.0457307694266615
0.9033316115901586 0.6420526926202815 0.0573900016371490
0.2181683176192700 0.0561234943143910 0.3748935722724375
0.9784317504334888 0.4137941013556031 0.1618650989591951
0.0202610097796719 0.9184761594199359 0.0195819452851516
0.3194538026120599 0.0242144854678502 -0.0162792162023578
0.3336551356703807 0.2992905875862138 -0.0104432832131736
0.3414653717455481 0.6255751448190295 0.0212916415541388
0.3369157031724989 0.3874697307080207 0.2378442738751639
0.1417276200117997 0.1551393073364815 0.4453146042696010
0.4806427777192560 0.1195804034462264 0.3007105778123777
0.9216143799748819 0.2878008353245938 0.4309736652043017
0.7293955258991364 0.6280667909098129 0.5319490078041522
0.1599661030657458 0.3819827662989900 0.2346708488202403
0.0422768502790230 0.8752995282027757 0.5269064751293976
0.1410704751250449 0.2192926688296002 0.2619035012703352
0.0459353186626283 0.1176934409598495 0.2157574688076422
0.2329902298168663 0.2887883982235247 0.4248471576036300
0.9685256348184990 0.0351769142419812 -0.0081325673002464
0.2079732551920974 0.9266337414105551 -0.0047338190745073
0.1842789545692229 0.9235853564462410 0.4462032123195947
0.0089241438093758 0.7942318127116883 -0.0457069923028207
0.2353859849466365 0.0121585562498817 0.0595554363934946
0.7870389213737149 0.2180465007518508 0.0674230560280181
0.4438379393932790 0.3194208266166638 0.9755888612045286
0.3479753523417392 0.1250893162310186 0.1546620522163744
0.4315027899530481 0.1544119774281477 0.0003766568364859
0.2626888790255342 0.2769556668800829 0.1055566611342088
0.5822362424401131 0.8460664255936442 0.3760401194381535
0.7847188604655311 0.3975773793864665 0.4758525750305545
0.6426569136057724 0.1652282543845091 0.3614557056951194
0.5144096039984302 0.3665598063973605 0.2244865482216642
0.3828107480348865 0.0490567750253516 0.2250839670826156
0.4129663150004616 0.2433737366859223 0.0779177508537515
0.6593451347659400 0.1300625223283388 0.2776392489830377
0.4008169108359291 0.3106356446576161 0.1639894592855344
0.0336532597336820 0.1866506412351283 0.0007492565129593
0.4774634753891399 0.9706649096843134 0.4125427251222735
0.1189323931762535 0.3937955299855296 0.4704570448528682
0.0700146037350691 0.4095472831212703 0.0881115064503096
0.1849835162692965 0.1187049853744733 0.1264414023719142
0.4100349242047772 0.0524040411606054 0.0686804795007497
0.0554396982527881 0.0373892701593785 0.0691857644331997
0.3278375594493212 0.9134643193464560 0.0688696745609473
0.2762361888418038 0.1139699817686057 0.2934789330281884
0.4313287142503726 0.8216378602297744 0.5640840958953427
0.2051593563593922 0.0606174279860529 0.2170802621894483
0.6141699870640094 0.9214480308180918 0.1847069349864794
0.3811458864976397 0.2455742939335323 0.3586654372632424
0.4687058626873916 0.0331905624690936 0.4796507515234106
0.1429042647932977 0.2152558615831265 0.3486772822310659
0.9773463350737255 0.5886924158860327 0.3325037100122026
-0.0363108937833521 0.1952972351887017 0.2856655380600769
0.0799241542955516 0.0496961015865874 0.2979506917559286
0.1581558143568114 0.3418370736087112 0.0069899833876487
0.7871674446636893 0.0504087300902249 0.0720771864532398
0.9978248887031644 0.8297176234955544 0.1860818531433865
0.1012533547700434 -0.0039063204462581 0.1640927758539145
0.6607251716543462 0.7062100181225857 0.0771637284979471
0.0730335681061553 0.3333579557571799 0.2959684839106878
