Cu6 Zr3 Nb9 Ta3 W3 
1.0
8.3523131282660099e+00 0.0000000000000000e+00 0.0000000000000000e+00 
8.3642345781397998e-01 5.2720696273766388e+00 0.0000000000000000e+00 
1.6978792531854112e-01 9.7070439114670781e-02 9.2582919430166850e+00 
Cu Zr Nb Ta W 
6 3 9 3 3 
Cartesian
   2.9196285223    3.8910803533    2.4113776863
   8.4823266816    3.9037463483    2.5187183231
   7.9317292615    2.3603923200    4.5679764366
   2.2279360173    2.3994271176    8.8803221744
   5.2711848409    2.5331953098    4.7877497708
   5.9330776763    3.7721484335    7.0460693747
   1.2981741621    1.4092535919    2.2595231819
   3.8784032539    5.0331777433    0.0690225107
   1.0623754766    4.8884279407    0.0373573932
   4.1410754631    1.1936441668    2.5116727629
   6.7890778493    1.2450072799    2.3927500029
   5.7681608364    3.8174793019    2.3763998593
   6.8428860963    4.9902092736    4.6799091862
   7.6291052115    2.4229262449    0.0084556443
   4.7972097475    2.3266352672    0.0303993238
   4.1085413361    1.1238901835    6.8210373307
   6.6551532659    5.0930718318    0.0034733408
   6.9346231908    1.1641818637    6.8680416789
   2.3484927934    2.4610821777    4.6669012861
   3.2254835840    3.8396922447    6.8427387670
   8.7122223417    3.7279000214    6.7901331522
   4.0262822381    5.0640385126    4.5983714091
   1.3415193227    5.0470081831    4.6158232894
   1.3108897264    1.0721005778    6.7987155889
