Al1 Cu2 Zr1 
1.0
4.4837719497455364e+00 0.0000000000000000e+00 0.0000000000000000e+00 
2.2419049857449118e+00 3.8830775150504762e+00 0.0000000000000000e+00 
2.2419056893416980e+00 1.2943592645203106e+00 3.6610129487878997e+00 
Al Cu Zr 
1 2 1 
Cartesian
   4.4844587458    5.1773901826    3.6610129488
   2.2419180751    1.2943591949    0.9152532372
   6.7257093875    3.8830775847    2.7457597116
   4.4838047637    2.5887183898    1.8305064744
