Al6 Nb3 Ta15 
1.0
8.5937878238513985e+00 0.0000000000000000e+00 0.0000000000000000e+00 
6.5511561926411588e-01 5.2269285453834113e+00 0.0000000000000000e+00 
-1.0291196923607768e+00 7.9265481946518890e-01 9.4061238008744681e+00 
Al Nb Ta 
6 3 15 
Cartesian
   5.6487373167    3.8985950640    2.3351078581
   4.9174860444    2.4101048665    0.0079330966
   7.7741117261    2.3903208803    0.0414263564
   3.2624137940    5.4139535261    4.7301609431
   0.3991085432    5.4462578515    4.7302455982
   0.5216946524    1.6706885111    7.0360345684
   3.3289162572    1.6575808216    7.0427505408
   6.1385948451    5.4107241698    4.6971736669
   6.2748085584    1.7008899566    7.0480085640
   1.0226370743    3.1779710708    9.4056534947
   2.8157953618    3.9191319416    2.3473922557
   0.9426379978    1.2694099124    2.3669475871
   3.7923582846    1.2584395895    2.3440718940
   1.5581784576    2.8476531529    4.6602734433
   4.4004836594    2.7753697624    4.6726142777
   8.4638339474    3.8898380626    2.3544374425
   7.3043550560    2.8694653542    4.7018955411
   6.6435069719    1.2319949142    2.3796552604
   2.8503670918    5.8397811592    9.3806802360
   2.1754619964    4.2147460874    7.0695485875
  -0.0393357436    5.8002601108    9.3966800526
   5.7133307017    5.8309870184    9.3840005977
   7.9333736058    4.2756295227    7.0911356416
   5.0756606527    4.2817403547    7.0557874284
