Ta1 Nb1 Al6
1.0
   3.8337387700000001   -0.0000000000000000    0.0000000000000000
   0.0000000000000000    3.8337387700000001    0.0000000000000000
  -0.0000000000000000   -0.0000000000000000    8.5355664400000002
Ta Nb Al
1 1 6
direct
   0.5000000000000000    0.5000000000000000    0.5000000000000000 Ta
   0.0000000000000000   -0.0000000000000000    0.0000000000000000 Nb
   0.5000000000000000    0.5000000000000000    0.0000000000000000 Al
   0.0000000000000000   -0.0000000000000000    0.5000000000000000 Al
   0.0000000000000000    0.5000000000000000    0.2510972600000000 Al
   0.5000000000000000   -0.0000000000000000    0.7489027400000000 Al
   0.5000000000000000    0.0000000000000000    0.2510972600000000 Al
  -0.0000000000000000    0.5000000000000000    0.7489027400000000 Al
