Al5 Cu5 
1.0
4.1269724921700313e+00 0.0000000000000000e+00 0.0000000000000000e+00 
2.0632153613942341e+00 5.9692624525804279e+00 0.0000000000000000e+00 
2.0633109538804946e+00 2.2373914878614602e+00 5.7246169547778267e+00 
Al Cu 
5 5 
Cartesian
   4.1267782904    4.1033747243    2.8623084774
   6.1901002147    4.6535157858    4.8697083834
   2.0634542991    3.5533142522    0.8548856729
   6.1900324297    7.6146547537    4.3458200628
   2.0635675665    0.5920904503    1.3788312397
   2.0645015007    2.2374863302    5.7245997809
   4.1270225107    2.0427159049    1.5754088613
   4.1265423227    6.1640544318    4.1492309919
   6.1902537278    5.5745202008    2.5235599937
   2.0633069807    2.6322165664    3.2010397872
