Al12 Zr3 Nb1 
1.0
4.0350717804877041e+00 0.0000000000000000e+00 0.0000000000000000e+00 
0.0000000000000000e+00 4.0351048607969187e+00 0.0000000000000000e+00 
0.0000000000000000e+00 0.0000000000000000e+00 1.7050410092004501e+01 
Al Zr Nb 
12 3 1 
Cartesian
   2.0175358902    0.0000000670    0.0378108189
   0.0000000933    2.0175524304    0.0378106484
   2.0175358902    2.0175524304    2.1654702833
   0.0000000321    2.0175524304    8.4323485126
   2.0175358902    4.0351048608    8.4323314622
   0.0000001230    0.0000000060    6.3833325302
   4.0350717805    2.0175524304    4.3630464889
   2.0175358902    4.0351048608    4.3630464889
   0.0000001412    4.0351048608   10.5596599782
   2.0175358902    0.0000000456   12.7481312647
   0.0000000391    2.0175524304   12.7481312647
   2.0175358902    2.0175524304   14.9377960800
   0.0000000307    4.0351048608    2.1520857114
   2.0175358902    2.0175524304   10.4891224316
   0.0000000499    0.0000000034   15.0006268412
   2.0175358902    2.0175524304    6.5021738886
