Al1 Ni3                                 
   1.00000000000000     
     3.4727806197223479   -0.0000794901241546    2.0049489568554875
     1.1575194754217355    3.2741938639920667    2.0049488976331284
    -0.0000730336604994   -0.0000524780803807    4.0100244972071044
   Al   Ni
     1     3
Direct
  0.0000000200000017  0.0000000000000000  0.0000000000000000
  0.7500009462191987  0.7499998062191753  0.7500017977547934
  0.4999999799999983  0.5000000000000000  0.5000000000000000
  0.2499990637808021  0.2500001937808247  0.2499982022452067
 
  0.00000000E+00  0.00000000E+00  0.00000000E+00
  0.00000000E+00  0.00000000E+00  0.00000000E+00
  0.00000000E+00  0.00000000E+00  0.00000000E+00
  0.00000000E+00  0.00000000E+00  0.00000000E+00
