Nb1 Ta1 
1.0
2.8731648979420101e+00 0.0000000000000000e+00 0.0000000000000000e+00 
-9.6307793130246266e-01 2.7065942934046756e+00 0.0000000000000000e+00 
1.4764283143131885e-08 -1.5507464974324493e-08 4.6930262592582093e+00 
Nb Ta 
1 1 
Cartesian
  -0.9630106262    2.7065888647    4.6930262593
   0.9550961547    1.3533025521    2.3465131296
