Al2 Cu6 
1.0
5.2249171007310542e+00 0.0000000000000000e+00 0.0000000000000000e+00 
-2.6124585501217821e+00 4.5249109414778275e+00 0.0000000000000000e+00 
2.1179265925957165e-16 -4.2484218814108864e-16 4.2328988598639157e+00 
Al Cu 
2 6 
Cartesian
  -0.0000026123    3.0166088026    3.1746741449
   2.6124611629    1.5083021389    1.0582247150
   0.0000000001    1.4990486960    1.0582247150
   1.3142442982    3.7753865935    1.0582247150
  -1.3142442978    3.7753865935    1.0582247150
   2.6124585505    3.0258622455    3.1746741449
   1.2982142524    0.7495243480    3.1746741449
   3.9267028484    0.7495243480    3.1746741449
