Nb7                                     
   1.00000000000000     
     2.8526000074744116   -0.0503622922277224    0.0380725091837704
     0.0806001024018146    4.6854740682357585    0.1038195024292563
     0.8671556149747159    2.1116672802435308    9.5325750606302915
   Nb
     7
Direct
  0.6428090769751936  0.2146898142296581  0.5714400901210847
  0.3571909230248066  0.7853101857703417  0.4285599098789152
  0.9285264112051450  0.6437488414356438  0.7143123582715050
  0.0714735887948550  0.3562511585643563  0.2856876417284950
  0.2142208666393297  0.0721230193491908  0.8571654118987128
  0.7857791333606701  0.9278769806508091  0.1428345881012871
  0.5000000000000000  0.5000000000000000  0.0000000000000000
 
  0.00000000E+00  0.00000000E+00  0.00000000E+00
  0.00000000E+00  0.00000000E+00  0.00000000E+00
  0.00000000E+00  0.00000000E+00  0.00000000E+00
  0.00000000E+00  0.00000000E+00  0.00000000E+00
  0.00000000E+00  0.00000000E+00  0.00000000E+00
  0.00000000E+00  0.00000000E+00  0.00000000E+00
  0.00000000E+00  0.00000000E+00  0.00000000E+00
