Al3 Ni2 
1.0
4.0386562743886296e+00 0.0000000000000000e+00 0.0000000000000000e+00 
-2.0193107752969994e+00 3.4975788805473056e+00 0.0000000000000000e+00 
-3.1860230977428520e-06 -2.8646395750608547e-08 4.9184795559141747e+00 
Al Ni 
3 2 
Cartesian
  -2.0187908503    3.4975788519    4.9184795559
  -0.0000490562    2.3317204009    3.1960772002
   2.0192742483    1.1658584510    1.7224023557
  -0.0000757498    2.3317204151    0.7614888418
   2.0192444006    1.1658584368    4.1569907141
