Al3 Cu3 Zr3 Nb12 W3 
1.0
1.0292947089960606e+01 0.0000000000000000e+00 0.0000000000000000e+00 
-2.5436803576302773e-04 6.2869715512672615e+00 0.0000000000000000e+00 
3.2359097255881577e-04 1.3774143513922149e-01 6.4205911669301283e+00 
Al Cu Zr Nb W 
3 3 3 12 3 
Cartesian
   1.7155481782    4.8296990156    4.8564067468
   5.1465271105    4.8296990156    4.8564067468
   8.5775060429    4.8296990156    4.8564067468
   3.4310441141    6.4161882441    6.3350367896
  10.2930122717    6.4161882441    6.3350367896
   6.8620333394    6.4161882441    6.3350367896
   1.7153847414    4.7410781948    1.5985089005
   5.1463636737    4.7410781948    1.5985089005
   8.5773426061    4.7410781948    1.5985089005
   1.7156692381    1.7265249355    4.7687656774
   3.4308553677    3.0583196486    0.0033856805
  10.2931089828    0.1385794109    3.2672077036
   3.4311408252    0.1385794109    3.2672077036
   1.7155128678    1.5749514800    1.5990225478
  -0.0001229897    3.0583196504    0.0033857639
   5.1466481705    1.7265249355    4.7687656774
   5.1464918001    1.5749514800    1.5990225478
   8.5776271028    1.7265249355    4.7687656774
   6.8618445930    3.0583196476    0.0033856355
   6.8621300504    0.1385794109    3.2672077036
   8.5774707325    1.5749514800    1.5990225478
   0.0000368357    3.2135085449    3.2540326505
   3.4310157395    3.2135085449    3.2540326505
   6.8620049647    3.2135085449    3.2540326505
