Al1 Cu2 Zr1 
1.0
2.9924074061059920e+00 0.0000000000000000e+00 0.0000000000000000e+00 
0.0000000000000000e+00 2.9924137688847070e+00 0.0000000000000000e+00 
0.0000000000000000e+00 0.0000000000000000e+00 6.8140391017308106e+00 
Al Cu Zr 
1 2 1 
Cartesian
   1.4962037031    1.4962068844    1.7035097754
   0.0000000089    2.9924137689    0.2406841263
   0.0000009920    0.0000000810    3.1663340617
   1.4962037031    1.4962068844    5.1105293263
