bcc_Al0_Cu3_Nb3_Ni0_Ta9_W0_Zr9          
   1.00000000000000     
    10.4788299143696761    0.0000000000000000    0.0000000000000000
     0.0000000000000000    6.5982503083993223   -0.0858816540652495
     0.0000000000000000   -0.0855555422823294    6.6422965376554695
   Cu   Nb   Ta   Zr
     3     3     9     9
Direct
 -0.0000000000000000  0.4937219907315671 -0.0142995936186277
  0.3333333333333357  0.4937219907315671 -0.0142995936186277
  0.6666666666666643  0.4937219907315671 -0.0142995936186277
  0.1666666666666643  0.2478758199988296  0.2634306310648147
  0.5000000000000000  0.2478758199988296  0.2634306310648147
  0.8333333333333357  0.2478758199988296  0.2634306310648147
 -0.0000000000000000 -0.0010413960932626  0.5079756320079888
  0.3333333333333357 -0.0010413960932626  0.5079756320079888
  0.6666666666666643 -0.0010413960932626  0.5079756320079888
  0.1666666666666643  0.2473621033962177  0.7452485229242574
  0.5000000000000000  0.2473621033962177  0.7452485229242574
  0.8333333333333357  0.2473621033962177  0.7452485229242574
  0.1666666666666643  0.7597568775851797  0.7521880445546838
  0.5000000000000000  0.7597568775851797  0.7521880445546838
  0.8333333333333357  0.7597568775851797  0.7521880445546838
 -0.0000000000000000  0.4935755070707225  0.5083264154073442
  0.3333333333333357  0.4935755070707225  0.5083264154073442
  0.6666666666666643  0.4935755070707225  0.5083264154073442
 -0.0000000000000000  0.0182678861253995 -0.0004332716845853
  0.3333333333333357  0.0182678861253995 -0.0004332716845853
  0.6666666666666643  0.0182678861253995 -0.0004332716845853
  0.1666666666666643  0.7404812111853469  0.2375636193441239
  0.5000000000000000  0.7404812111853469  0.2375636193441239
  0.8333333333333357  0.7404812111853469  0.2375636193441239
 
  0.00000000E+00  0.00000000E+00  0.00000000E+00
  0.00000000E+00  0.00000000E+00  0.00000000E+00
  0.00000000E+00  0.00000000E+00  0.00000000E+00
  0.00000000E+00  0.00000000E+00  0.00000000E+00
  0.00000000E+00  0.00000000E+00  0.00000000E+00
  0.00000000E+00  0.00000000E+00  0.00000000E+00
  0.00000000E+00  0.00000000E+00  0.00000000E+00
  0.00000000E+00  0.00000000E+00  0.00000000E+00
  0.00000000E+00  0.00000000E+00  0.00000000E+00
  0.00000000E+00  0.00000000E+00  0.00000000E+00
  0.00000000E+00  0.00000000E+00  0.00000000E+00
  0.00000000E+00  0.00000000E+00  0.00000000E+00
  0.00000000E+00  0.00000000E+00  0.00000000E+00
  0.00000000E+00  0.00000000E+00  0.00000000E+00
  0.00000000E+00  0.00000000E+00  0.00000000E+00
  0.00000000E+00  0.00000000E+00  0.00000000E+00
  0.00000000E+00  0.00000000E+00  0.00000000E+00
  0.00000000E+00  0.00000000E+00  0.00000000E+00
  0.00000000E+00  0.00000000E+00  0.00000000E+00
  0.00000000E+00  0.00000000E+00  0.00000000E+00
  0.00000000E+00  0.00000000E+00  0.00000000E+00
  0.00000000E+00  0.00000000E+00  0.00000000E+00
  0.00000000E+00  0.00000000E+00  0.00000000E+00
  0.00000000E+00  0.00000000E+00  0.00000000E+00
