bcc_Al0_Cu9_Nb3_Ni6_Ta0_W6_Zr0          
   1.00000000000000     
     9.8694602796429294    0.0000000000000000    0.0000000000000000
     0.0000000000000000    5.6029838976840649   -0.0386880482227976
     0.0000000000000000   -0.0359941670791591    5.9319632102394930
   Cu   Nb   Ni   W 
     9     3     6     6
Direct
 -0.0000000000000000  0.4725210444688337  0.5031225983090195
  0.3333333333333357  0.4725210444688337  0.5031225983090195
  0.6666666666666643  0.4725210444688337  0.5031225983090195
  0.1666666666666643  0.2589111067631004  0.2587806198131004
  0.5000000000000000  0.2589111067631004  0.2587806198131004
  0.8333333333333357  0.2589111067631004  0.2587806198131004
  0.1666666666666643  0.2630975756587572  0.7399572997152412
  0.5000000000000000  0.2630975756587572  0.7399572997152412
  0.8333333333333357  0.2630975756587572  0.7399572997152412
  0.1666666666666643  0.7493221057551985  0.2541599144376033
  0.5000000000000000  0.7493221057551985  0.2541599144376033
  0.8333333333333357  0.7493221057551985  0.2541599144376033
 -0.0000000000000000  0.0053729251198768  0.4999324548667435
  0.3333333333333357  0.0053729251198768  0.4999324548667435
  0.6666666666666643  0.0053729251198768  0.4999324548667435
 -0.0000000000000000  0.4855144320531468 -0.0032317406425704
  0.3333333333333357  0.4855144320531468 -0.0032317406425704
  0.6666666666666643  0.4855144320531468 -0.0032317406425704
  0.1666666666666643  0.7508262392383349  0.7556822504593217
  0.5000000000000000  0.7508262392383349  0.7556822504593217
  0.8333333333333357  0.7508262392383349  0.7556822504593217
 -0.0000000000000000  0.0144345709427514 -0.0084033969584588
  0.3333333333333357  0.0144345709427514 -0.0084033969584588
  0.6666666666666643  0.0144345709427514 -0.0084033969584588
 
  0.00000000E+00  0.00000000E+00  0.00000000E+00
  0.00000000E+00  0.00000000E+00  0.00000000E+00
  0.00000000E+00  0.00000000E+00  0.00000000E+00
  0.00000000E+00  0.00000000E+00  0.00000000E+00
  0.00000000E+00  0.00000000E+00  0.00000000E+00
  0.00000000E+00  0.00000000E+00  0.00000000E+00
  0.00000000E+00  0.00000000E+00  0.00000000E+00
  0.00000000E+00  0.00000000E+00  0.00000000E+00
  0.00000000E+00  0.00000000E+00  0.00000000E+00
  0.00000000E+00  0.00000000E+00  0.00000000E+00
  0.00000000E+00  0.00000000E+00  0.00000000E+00
  0.00000000E+00  0.00000000E+00  0.00000000E+00
  0.00000000E+00  0.00000000E+00  0.00000000E+00
  0.00000000E+00  0.00000000E+00  0.00000000E+00
  0.00000000E+00  0.00000000E+00  0.00000000E+00
  0.00000000E+00  0.00000000E+00  0.00000000E+00
  0.00000000E+00  0.00000000E+00  0.00000000E+00
  0.00000000E+00  0.00000000E+00  0.00000000E+00
  0.00000000E+00  0.00000000E+00  0.00000000E+00
  0.00000000E+00  0.00000000E+00  0.00000000E+00
  0.00000000E+00  0.00000000E+00  0.00000000E+00
  0.00000000E+00  0.00000000E+00  0.00000000E+00
  0.00000000E+00  0.00000000E+00  0.00000000E+00
  0.00000000E+00  0.00000000E+00  0.00000000E+00
