hcp_Al6_Cu0_Nb0_Ni0_Ta0_W6_Zr12         
   1.00000000000000     
    11.3944359113491132    0.0000000000000000    0.0000000000000000
     0.0000000000000000    4.5064758492097869    0.0000000000000000
     0.0000000000000000    0.0000000000000000    9.0638867478068086
   Al   W    Zr
     6     6    12
Direct
 -0.0135226748185463  0.5833788004317119  0.2500000000000000
  0.1666669999999968  0.5831096673054437 -0.0000000000000000
  0.3468556748185495  0.5833788004317119  0.2500000000000000
 -0.0135226748185463  0.5833788004317119  0.7500000000000000
  0.1666669999999968  0.5831096673054437  0.5000000000000000
  0.3468556748185495  0.5833788004317119  0.7500000000000000
  0.5257237704987769  0.5834432202658518  0.5000000000000000
  0.6666669999999968  0.5834291409814210  0.7500000000000000
  0.8076092295012264  0.5834432202658517  0.5000000000000000
  0.5257237704987769  0.5834432202658518  0.0000000000000000
  0.6666669999999968  0.5834291409814210  0.2500000000000000
  0.8076092295012264  0.5834432202658517  0.0000000000000000
 -0.0100000041905896  0.0831866839803175 -0.0000000000000000
  0.1666669999999968  0.0829697005614879  0.2500000000000000
  0.3433330041905927  0.0831866839803175 -0.0000000000000000
  0.5061838428180923  0.0835130603442721  0.7500000000000000
  0.6666669999999968  0.0834499611073225  0.5000000000000000
  0.8271491571819107  0.0835130603442721  0.7500000000000000
 -0.0100000041905896  0.0831866839803175  0.5000000000000000
  0.1666669999999968  0.0829697005614879  0.7500000000000000
  0.3433330041905927  0.0831866839803175  0.5000000000000000
  0.5061838428180923  0.0835130603442721  0.2500000000000000
  0.6666669999999968  0.0834499611073225 -0.0000000000000000
  0.8271491571819107  0.0835130603442721  0.2500000000000000
 
  0.00000000E+00  0.00000000E+00  0.00000000E+00
  0.00000000E+00  0.00000000E+00  0.00000000E+00
  0.00000000E+00  0.00000000E+00  0.00000000E+00
  0.00000000E+00  0.00000000E+00  0.00000000E+00
  0.00000000E+00  0.00000000E+00  0.00000000E+00
  0.00000000E+00  0.00000000E+00  0.00000000E+00
  0.00000000E+00  0.00000000E+00  0.00000000E+00
  0.00000000E+00  0.00000000E+00  0.00000000E+00
  0.00000000E+00  0.00000000E+00  0.00000000E+00
  0.00000000E+00  0.00000000E+00  0.00000000E+00
  0.00000000E+00  0.00000000E+00  0.00000000E+00
  0.00000000E+00  0.00000000E+00  0.00000000E+00
  0.00000000E+00  0.00000000E+00  0.00000000E+00
  0.00000000E+00  0.00000000E+00  0.00000000E+00
  0.00000000E+00  0.00000000E+00  0.00000000E+00
  0.00000000E+00  0.00000000E+00  0.00000000E+00
  0.00000000E+00  0.00000000E+00  0.00000000E+00
  0.00000000E+00  0.00000000E+00  0.00000000E+00
  0.00000000E+00  0.00000000E+00  0.00000000E+00
  0.00000000E+00  0.00000000E+00  0.00000000E+00
  0.00000000E+00  0.00000000E+00  0.00000000E+00
  0.00000000E+00  0.00000000E+00  0.00000000E+00
  0.00000000E+00  0.00000000E+00  0.00000000E+00
  0.00000000E+00  0.00000000E+00  0.00000000E+00
