Ni3 Cu12 Zr6 Ta3 
1.0
1.1755202507307526e+01 0.0000000000000000e+00 0.0000000000000000e+00 
-1.3658971551846946e-08 5.2664346195113465e+00 0.0000000000000000e+00 
3.2200003108860833e-04 -1.2214648534292709e+00 6.0305881908914056e+00 
Ni Cu Zr Ta 
3 12 6 3 
Cartesian
   3.9186861860    1.9209193450    5.4177236354
   0.0002895977    1.9209193450    5.4177236354
   7.8370948586    1.9209193450    5.4177236354
   1.9594533568    0.4597173792    4.6638578974
   1.9593222949    0.5361365145    2.2092396473
   3.9185528376    1.8742418631    2.9202761479
   3.9185651068    4.5379492966    3.1501923227
   0.0001560729    1.8742418631    2.9202761479
   0.0001682201    4.5379492966    3.1501923227
   5.8777192123    0.5361365145    2.2092396473
   5.8778502742    0.4597173792    4.6638578974
   9.7962471916    0.4597173792    4.6638578974
   9.7961161296    0.5361365145    2.2092396473
   7.8369615101    1.8742418631    2.9202761479
   7.8369737793    4.5379492966    3.1501923227
   1.9592685889    3.2104077296    1.2035244853
   3.9184098317    0.5433579792    0.2418959382
   5.8776655062    3.2104077296    1.2035244853
   0.0000129453    0.5433579792    0.2418959382
   9.7960624236    3.2104077296    1.2035244853
   7.8368185043    0.5433579792    0.2418959382
   1.9594347573    3.0971495678    4.3156396741
   5.8778316746    3.0971495678    4.3156396741
   9.7962285920    3.0971495678    4.3156396741
