Zr3 Cu1                                 
   1.00000000000000     
     4.3136263401276889    0.0000000000000000   -0.0000000000000000
     0.0000000000000000    4.3136263401276889   -0.0000000000000000
     0.0000000000000000    0.0000000000000000    4.3136263401276889
   Zr   Cu
     3     1
Direct
  0.5000000000000000  0.5000000000000000  0.0000000000000000
  0.5000000000000000  0.0000000000000000  0.5000000000000000
  0.0000000000000000  0.5000000000000000  0.5000000000000000
  0.0000000000000000  0.0000000000000000  0.0000000000000000
 
  0.00000000E+00  0.00000000E+00  0.00000000E+00
  0.00000000E+00  0.00000000E+00  0.00000000E+00
  0.00000000E+00  0.00000000E+00  0.00000000E+00
  0.00000000E+00  0.00000000E+00  0.00000000E+00
