Al2 Ni4
1.0
  -1.9870015999999999   -3.4415873200000000   -0.0000000000000000
  -1.9870015999999999    3.4415873200000000    0.0000000000000000
   0.0000000000000000    0.0000000000000000   -4.9042588199999999
Al Ni
2 4
direct
   0.6666670000000000    0.3333330000000000    0.8101259400000000 Al
   0.3333330000000000    0.6666670000000000    0.1898740600000000 Al
   0.6666670000000000    0.3333330000000000    0.3148899600000000 Ni
   0.3333330000000000    0.6666670000000000    0.6851090400000001 Ni
   0.0000000000000000    0.0000000000000000    0.5000000000000000 Ni
   0.0000000000000000    0.0000000000000000    0.0000000000000000 Ni
