Cu1 Nb3 
1.0
4.5464545115300252e+00 0.0000000000000000e+00 0.0000000000000000e+00 
2.2732217094022973e+00 3.9373456785111882e+00 0.0000000000000000e+00 
2.2732264147488030e+00 1.3124495548900004e+00 3.7121642468428093e+00 
Cu Nb 
1 3 
Cartesian
   9.0925252800    5.2497479853    3.7121642468
   2.2729278663    1.3123739988    0.9280410617
   4.5461580716    2.6248306818    1.8560821234
   6.8193791841    3.9372716155    2.7841231851
