Al1 Nb4 
1.0
1.1814451896211239e+01 0.0000000000000000e+00 0.0000000000000000e+00 
1.1391670958552014e+01 2.7742924073045323e+00 0.0000000000000000e+00 
4.2183122020139319e-01 -6.9296371729357775e-01 2.6864108006844001e+00 
Al Nb 
1 4 
Cartesian
  12.2362744684   -0.6929629461    2.6864108007
   4.9383368584   -0.0056044419    2.1539346295
   9.6244518025    0.7073451895    1.6013023180
  14.0034908808    1.3739807262    1.0851084827
  18.6896054021    2.0869331319    0.5324761712
