Zr4 Al8                                 
   1.00000000000000     
     5.2936401140362568    0.0000010208696108    0.0000000000000000
    -2.6468190371429334    4.5844247388984680   -0.0000000000000000
     0.0000000000000000    0.0000000000000000    8.7736012087046618
   Zr   Al
     4     8
Direct
  0.3333330000000032  0.6666669999999968  0.4352913482714476
  0.6666669999999968  0.3333330000000032  0.9352903482714430
  0.6666669999999968  0.3333330000000032  0.5647096517285570
  0.3333330000000032  0.6666669999999968  0.0647096517285570
  0.1708377823099487  0.3416745646193616  0.7500000000000000
  0.8291622176899350  0.1708377823094033  0.2500000000000000
  0.3416745646200233  0.1708377823099487  0.2500000000000000
  0.6583254353799767  0.8291622176900513  0.7500000000000000
  0.0000000000000000  0.0000000000000000 -0.0000000000000000
  0.0000000000000000  0.0000000000000000  0.5000000000000000
  0.8291622176900513  0.6583254353806384  0.2500000000000000
  0.1708377823100650  0.8291622176905967  0.7500000000000000
 
  0.00000000E+00  0.00000000E+00  0.00000000E+00
  0.00000000E+00  0.00000000E+00  0.00000000E+00
  0.00000000E+00  0.00000000E+00  0.00000000E+00
  0.00000000E+00  0.00000000E+00  0.00000000E+00
  0.00000000E+00  0.00000000E+00  0.00000000E+00
  0.00000000E+00  0.00000000E+00  0.00000000E+00
  0.00000000E+00  0.00000000E+00  0.00000000E+00
  0.00000000E+00  0.00000000E+00  0.00000000E+00
  0.00000000E+00  0.00000000E+00  0.00000000E+00
  0.00000000E+00  0.00000000E+00  0.00000000E+00
  0.00000000E+00  0.00000000E+00  0.00000000E+00
  0.00000000E+00  0.00000000E+00  0.00000000E+00
