Converted from final.data
1.0
14.8432305768844373 0.0000000000000000 0.0000000000000000
-0.0887132692930732 14.9858560172861566 0.0000000000000000
-0.2094052751402181 -0.6069958266516760 32.8046617321982126
Cu W Ni Zr Nb
10 19 5 1 26
Direct
0.2011955376521705 0.3478590162725884 0.4562456345145260
-0.0092175698578018 0.1934650111959794 0.3791771295884014
0.4365998441071398 0.2825504904857010 0.3002974383416976
0.1002965793659374 0.2820365440483351 0.2579955441807742
0.3796495129846128 0.5607813021482910 0.0406394262392808
0.3328362867503918 0.3098156149020545 0.4988487430792099
0.1797151614479859 0.3588678205311511 0.3186221918767617
0.0911735522104135 0.0085817225270790 0.1869648960719641
0.1577181952740188 0.2979772150983778 0.0273276072029555
0.2976240060358601 0.4041180666882944 0.2008475537512322
0.4054417084568272 0.5607707537367504 0.3468680045341460
0.4582689896700524 0.2202904002274372 0.3805993617520534
0.0922146344649442 0.9827437112804163 0.2641235153331816
0.4188662485241986 0.1416504516795521 0.0591509242270541
0.4380046470905868 0.9817468494569086 0.0943417048764699
-0.0035199886469915 0.3048446348188440 0.3234040886333873
0.1138606502945577 0.8780151327575794 0.4540276643114707
0.1690656085299962 0.1236374605235438 0.3861118497588474
0.0166691176111523 0.2362510514861762 0.0592381050599534
0.1835687589678779 0.2342337501900754 0.0963067257351349
0.0983915654879167 0.0688080073597351 0.0741416010176094
0.0868993138301682 0.1492681685247675 0.1454228539882088
0.8884174515937495 0.3470859334010706 0.0976632717370848
0.2550613756418167 0.1499950938900316 0.0320343624881719
0.9621796717913027 0.1360426017721778 0.4560865710280949
0.2924797738144073 0.2341679031158860 0.3493639878781802
0.0830362528306981 0.6273707348617706 0.3079099510443306
0.5795376944654008 0.3241181666101763 0.3431968503734910
0.7939702602901176 0.4811722169434124 0.0684972749816245
0.3468947049470703 0.3228474696678117 0.4209440385436370
0.3362651774635145 0.3995704675775308 0.3299818879335349
0.1411230250968387 0.1846515674970265 0.3125605744026251
0.5641348762098376 0.1265323199690041 -0.0162702231236184
0.0137085366155970 0.4005492595374983 0.0541695578408081
0.1310184548800447 0.4712057287743950 0.2547814246399521
0.3297928431455166 0.1338120323344799 0.2855797426062223
0.2173927006998817 0.4144685052316909 0.0976929017311329
0.0706359641591913 0.4694313889318827 0.3497679986103716
0.2737619216560284 0.1810114914978536 0.4464575838709418
0.2375873371845194 0.4319610683066377 0.3896700950986183
0.3717122367615739 0.0555261713241988 0.3799284086667009
0.5206972727909347 0.1203882943989177 0.3093741299265742
0.9823157891388904 0.1006420777825788 0.2189918193199450
0.4701193831572114 0.2258317761467016 0.4619675615088465
0.5997756772373853 0.3790465658291404 0.4314915364177903
0.0344398321100571 0.3449555324534770 0.1242687457913196
0.3602733228412430 0.3040399451868346 0.0413771795890680
0.8955367137472852 0.5282375887061581 0.1369273169218232
0.2592308292531013 -0.0265744533302738 0.2248558192825997
0.1852912087835560 0.2805315802819400 0.1797849088485123
0.2740455994752068 0.3018411665925173 0.2607382124524937
0.8972882402609178 0.3918084637003565 0.0037328316923749
0.4357700517867042 -0.0026090423392639 0.0056823009313983
0.3572402464236563 0.2844379548221455 0.1310422756615872
0.2744174560248883 0.1173197599741475 0.1181917357708265
0.2750068370159540 0.4354446516492664 0.0160751360670165
0.1594154344477044 0.1258348980201207 0.2398505048585302
0.2353608992642110 0.9991837854163489 0.4247171161567831
0.9169983578308789 0.3741488762603002 0.3850438378492881
0.0772032435536793 0.5572116762720370 0.5273070882198584
0.5719167319925053 0.3257014168462024 0.5163381589377586
