Al1 Ni1
1.0
   2.8597112899999999    0.0000000000000000   -0.0000000000000000
  -0.0000000000000000    2.8597112899999999   -0.0000000000000000
   0.0000000000000000   -0.0000000000000000    2.8597112899999999
Al Ni
1 1
direct
   0.5000000000000000    0.5000000000000000    0.5000000000000000 Al
  -0.0000000000000000   -0.0000000000000000   -0.0000000000000000 Ni
