Converted from final.data
1.0
15.0188723892431248 0.0000000000000000 0.0000000000000000
-0.5661347578806976 33.5446548772119542 0.0000000000000000
-0.4114085239959740 -0.2538050695322194 15.1814559231823480
Al Nb W Ta Ni Cu
4 21 21 5 1 11
Direct
0.1130805760717431 0.5590023517419792 0.1624702820821158
0.6607720318536188 0.9136817912905876 0.1821973849077146
0.2752810368294719 0.3769330167506860 0.7469631798362907
0.3328628367090790 0.3388781792335148 0.8781589103874010
-0.0214004522201580 0.5157856968416086 0.2577833550814141
0.4355562604271793 0.4501693017170420 0.4841139279419357
0.8927130234452113 0.9864173322167950 0.2934614011201100
0.9693330810429879 0.2997594303454274 0.2561812264750443
0.2583897494257206 0.3522306080055909 0.3203585164058402
0.7369941480381714 0.5708212915221017 0.6762358396466048
0.7348910379522339 0.3724174430876532 0.4232500912675351
0.1452512260347000 0.3313615671282893 0.4719721422825970
0.3446941433066623 0.2666681628540781 0.0852878698273920
0.0972146847262785 0.3073689643082897 0.1516602945503533
0.0046925247218945 0.9292547257244255 0.4022861891912763
0.1928034204155935 0.4140021487973594 0.2466366683014438
0.0568945121865165 0.1942771514357276 0.7994815740682045
0.0138119790224418 0.4240608338692570 0.2436976947808883
0.1299508476911610 0.1612744689303461 0.0622344463616769
0.0582714311022032 0.2215806661150589 0.2225042396331688
0.3845017898720011 0.1523308201423047 0.2465315957668745
0.0690424577932736 0.9912028475269415 0.8726689009760024
0.6606127149977807 0.2903921040689721 0.3642537436681060
0.8825363000300444 0.3326219040334806 0.0784502586188291
0.5867297762829958 0.4489087107212439 0.6018898044632114
0.0751443133444520 0.3746835108366697 0.9442456200285158
0.5085722868361661 0.1952114404874490 -0.0238877762268240
0.3811785099259308 0.2363213802814474 0.2704705411666674
0.6557123614290821 0.1286705913126910 0.3171796613607288
0.3993338712213975 0.1473830265006476 0.0431940173235244
0.3784090845272720 0.3100325278317654 0.2156695023569660
0.7938508645258129 0.1324380539312237 0.9348417901671983
0.2578502720431868 0.0562790595459301 0.4784360338304935
0.3872320964045188 0.0038152096151815 -0.0205057762716727
0.3415683519499537 0.9749071855429798 0.0441662098035064
0.1245372266106827 0.7759010104243926 0.8332119498751990
0.7276454236566406 0.1585882908564440 0.1885005457010889
0.3120575281375222 0.4843790048368208 0.9982962658512056
0.4512975447626560 0.2143128165078649 0.1328086432285875
0.0740696624840574 0.0838492993802131 0.0187570699055355
0.2160859522060619 0.1944525989781338 0.5255831387605370
0.6392666349512792 0.2011470397901231 0.4419814677108269
0.2991219121719879 0.0806990111904742 0.2551031547050408
0.8716956620161719 -0.0331181005553789 0.6713798684241403
-0.0145196029895299 0.9683766195252043 0.1966043540879121
-0.0359709704182802 0.0092720213412896 0.2400211603853896
0.2573339806030894 0.3985115583403768 0.9833297936684723
0.6585393284062508 0.3955661332473825 0.1271792879564649
0.2911246168806171 0.1298287234737287 0.3889596107358738
0.9192143280965966 0.0439095159375221 0.5862727498319021
0.2522475723593172 0.0293426890598802 0.1180781207803212
0.0496092195691026 0.2608445990045485 0.0132974143221449
0.7402812791027529 0.0607580004951286 0.6244251258747787
0.9410803950005199 0.2653088722719297 0.0899346975542194
0.7690131111072067 0.4589965056531510 0.4540766407494735
0.9618967659589468 0.4208001110894659 0.0101728241106598
0.3921630518593678 0.0814462059936860 0.1339801367979662
0.7057668644436629 0.7164375673245802 0.0133410708185923
0.0752225476690853 0.4514934888541898 0.5123097243477209
0.1260283748960330 0.2675091138033048 0.7320900450815931
0.5438899303394732 -0.0174610070730768 0.8091007732067080
0.8425575073002211 0.2047577493169563 0.8788693887047645
0.8617974132950786 0.4030918349345581 0.1729499525042590
