Ni4 Nb2 
1.0
4.7992935305853512e+00 0.0000000000000000e+00 0.0000000000000000e+00 
2.3994180167450172e+00 4.1562469074009361e+00 0.0000000000000000e+00 
2.3994716671374996e+00 1.3854342099259933e+00 3.9185765053611568e+00 
Ni Nb 
4 2 
Cartesian
   4.7991766670    2.7708585308    0.4898220632
   4.7992010933    1.3854369426    2.4491142344
   3.5992441375    3.4635908754    2.4491181530
   5.9988741079    3.4635534691    2.4490946415
   2.3997881613    1.3855408105    0.9796441263
   0.0004615389    0.0002441767    0.0000000133
