Zr4 Al2                                 
   1.00000000000000     
     4.6806782135792320   -0.0000000105955867    2.6563877352301559
     2.3403390966234938    4.8448112166681003    1.3281923454340210
    -0.0509409614849220   -0.0000000112102048    5.5417400676768356
   Zr   Al
     4     2
Direct
  0.6515383208181365  0.1969213583637365  0.5000000000000284
  0.8484616791818882  0.4999999999999716  0.8030786416362465
  0.3484616791818634  0.8030786416362635  0.4999999999999716
  0.1515383208181119  0.5000000000000284  0.1969213583637535
  0.7500000000000000  0.0000000000000000 -0.0000000000000000
  0.2500000000000000  0.0000000000000000 -0.0000000000000000
 
  0.00000000E+00  0.00000000E+00  0.00000000E+00
  0.00000000E+00  0.00000000E+00  0.00000000E+00
  0.00000000E+00  0.00000000E+00  0.00000000E+00
  0.00000000E+00  0.00000000E+00  0.00000000E+00
  0.00000000E+00  0.00000000E+00  0.00000000E+00
  0.00000000E+00  0.00000000E+00  0.00000000E+00
