Cu5 Zr1 
1.0
5.3509983396967922e+00 0.0000000000000000e+00 0.0000000000000000e+00 
2.8157372965726770e+00 4.0688874010898646e+00 0.0000000000000000e+00 
2.7689869774009783e+00 4.5984025495403152e-01 4.0080216975195979e+00 
Cu Zr 
5 1 
Cartesian
   2.7135475537    0.8968149374    1.2808114297
   4.1105829766    2.8420507744    2.1844078973
   6.9338436929    2.9334933887    2.4085324626
   5.6248834826    2.6051043726    0.3708141514
   5.5212902609    0.9514416204    2.7151701706
   7.8679755937    4.0296242464    0.0583183189
