bcc_Al12_Cu0_Nb0_Ni0_Ta9_W0_Zr3         
   1.00000000000000     
    11.5177908868396059    0.0000000000000000    0.0000000000000000
     0.0000000000000000    6.0501193923320677    0.0438709986588703
     0.0000000000000000    0.0460163068487300    6.0408762548742718
   Al   Ta   Zr
    12     9     3
Direct
  0.1666666666666643  0.2405160291823037  0.2509847316887068
  0.5000000000000000  0.2405160291823037  0.2509847316887068
  0.8333333333333357  0.2405160291823037  0.2509847316887068
  0.1666666666666643  0.7533505034571026  0.7424369081417797
  0.5000000000000000  0.7533505034571026  0.7424369081417797
  0.8333333333333357  0.7533505034571026  0.7424369081417797
  0.0000000000000000  0.4940722404104720  0.5117601448783861
  0.3333333333333357  0.4940722404104720  0.5117601448783861
  0.6666666666666643  0.4940722404104720  0.5117601448783861
  0.1666666666666643  0.7577029622784992  0.2580050823368895
  0.5000000000000000  0.7577029622784992  0.2580050823368894
  0.8333333333333357  0.7577029622784992  0.2580050823368894
  0.0000000000000000 -0.0050511869158817  0.4892638601058968
  0.3333333333333357 -0.0050511869158817  0.4892638601058968
  0.6666666666666643 -0.0050511869158817  0.4892638601058968
  0.1666666666666643  0.2435755312591904  0.7461455034211786
  0.5000000000000000  0.2435755312591904  0.7461455034211786
  0.8333333333333357  0.2435755312591904  0.7461455034211786
  0.0000000000000000  0.0041226023428239 -0.0069233976356869
  0.3333333333333357  0.0041226023428239 -0.0069233976356869
  0.6666666666666643  0.0041226023428239 -0.0069233976356869
  0.0000000000000000  0.5117113179854893  0.0083271670628500
  0.3333333333333357  0.5117113179854893  0.0083271670628500
  0.6666666666666643  0.5117113179854893  0.0083271670628500
 
  0.00000000E+00  0.00000000E+00  0.00000000E+00
  0.00000000E+00  0.00000000E+00  0.00000000E+00
  0.00000000E+00  0.00000000E+00  0.00000000E+00
  0.00000000E+00  0.00000000E+00  0.00000000E+00
  0.00000000E+00  0.00000000E+00  0.00000000E+00
  0.00000000E+00  0.00000000E+00  0.00000000E+00
  0.00000000E+00  0.00000000E+00  0.00000000E+00
  0.00000000E+00  0.00000000E+00  0.00000000E+00
  0.00000000E+00  0.00000000E+00  0.00000000E+00
  0.00000000E+00  0.00000000E+00  0.00000000E+00
  0.00000000E+00  0.00000000E+00  0.00000000E+00
  0.00000000E+00  0.00000000E+00  0.00000000E+00
  0.00000000E+00  0.00000000E+00  0.00000000E+00
  0.00000000E+00  0.00000000E+00  0.00000000E+00
  0.00000000E+00  0.00000000E+00  0.00000000E+00
  0.00000000E+00  0.00000000E+00  0.00000000E+00
  0.00000000E+00  0.00000000E+00  0.00000000E+00
  0.00000000E+00  0.00000000E+00  0.00000000E+00
  0.00000000E+00  0.00000000E+00  0.00000000E+00
  0.00000000E+00  0.00000000E+00  0.00000000E+00
  0.00000000E+00  0.00000000E+00  0.00000000E+00
  0.00000000E+00  0.00000000E+00  0.00000000E+00
  0.00000000E+00  0.00000000E+00  0.00000000E+00
  0.00000000E+00  0.00000000E+00  0.00000000E+00
