Cu2 Zr4 
1.0
5.7416315864203211e+00 0.0000000000000000e+00 0.0000000000000000e+00 
4.8150947417907668e+00 3.1274903511523342e+00 0.0000000000000000e+00 
4.2867762173930348e+00 1.2699818906295148e+00 6.6142672911645253e+00 
Cu Zr 
2 4 
Cartesian
   4.6318966740    1.3722257929    1.0736477095
  10.2116058716    3.0252464489    5.5406195817
   1.6226176557    0.4807097299    0.9706040394
   6.0537954205    1.7934714019    3.6703429053
  13.2208870013    3.9167631373    5.6436632518
   8.7897071251    2.6040008399    2.9439243858
