Zr9 W15 
1.0
9.8539359100318613e+00 0.0000000000000000e+00 0.0000000000000000e+00 
0.0000000000000000e+00 4.5928027788739545e+00 0.0000000000000000e+00 
0.0000000000000000e+00 0.0000000000000000e+00 9.2941706304677254e+00 
Zr W 
9 15 
Cartesian
   1.6423259363    0.3827357082    2.4114097468
   6.5692938913    2.6791334234    2.3171761507
   4.8531127054    2.6791334234    4.6548645361
   4.8941543484    2.6791334234    9.2922467371
   3.2662939900    0.3827338711    9.2271596602
   0.0183500980    0.3827343304    9.2271596602
   8.2854750773    2.6791334234    4.6548645361
   8.2444235803    2.6791334234    9.2922560313
   6.5692938913    2.6791334234    6.9797269659
   0.0075896098    2.6791380162    2.3508582251
   3.2770544880    2.6791380162    2.3508582251
   4.8527481097    0.3827343304    2.4161683621
   8.2858298190    0.3827343304    2.4161683621
   1.6423259363    2.6791380162    9.2723758003
   1.6423259363    2.6791380162    4.6542604150
   0.0804352153    2.6791380162    6.9507198594
   3.2042141938    2.6791334234    6.9507198594
   0.0511082269    0.3827347897    4.7163640631
   1.6423259363    0.3827347897    6.8615980572
   3.2335395071    0.3827347897    4.7163640631
   4.8556550208    0.3827338711    6.8773423822
   6.5692938913    0.3827338711    9.2854434042
   6.5692938913    0.3827338711    4.6591026779
   8.2829229079    0.3827334118    6.8773423822
