fcc_Al4_Cu12_Nb0_Ni16_Ta0_W0_Zr0        
   1.00000000000000     
     7.1802848259649892    0.0000000000000000    0.0000000000000000
    -0.0000000000000000    7.1802848259649892    0.0000000000000000
    -0.0000000000000000   -0.0000000000000000    7.2009839606305315
   Al   Cu   Ni
     4    12    16
Direct
  0.4840155082360874  0.4840155082360874  0.4907352290309169
  0.7659844917639127  0.7659844917639127  0.4907352290309169
  0.4840155082360874  0.7659844917639127  0.7592647709690831
  0.7659844917639127  0.4840155082360874  0.7592647709690831
  0.4976650679805941  0.4976650679805941  0.0013215539710596
  0.7523349320194060  0.7523349320194060  0.0013215539710596
  0.4976650679805941  0.7523349320194060  0.2486784460289404
  0.7523349320194060  0.4976650679805941  0.2486784460289404
  0.0035891087855445  0.0035891087855445  0.4980709466628280
  0.2464108912144555  0.2464108912144555  0.4980709466628280
  0.0035891087855445  0.2464108912144555  0.7519290533371719
  0.2464108912144555  0.0035891087855445  0.7519290533371719
 -0.0018008769058744 -0.0018008769058744  0.0014209003183314
  0.2518008769058743  0.2518008769058743  0.0014209003183314
 -0.0018008769058744  0.2518008769058743  0.2485790996816686
  0.2518008769058743 -0.0018008769058744  0.2485790996816686
  0.0007341671578313  0.5033835525129151  0.5007685480989530
  0.2492658328421687  0.7466164474870849  0.5007685480989530
  0.0007341671578313  0.7466164474870849  0.7492314519010470
  0.2492658328421687  0.5033835525129151  0.7492314519010470
  0.5021453143027332  0.0047633755502790  0.0009462606110861
  0.7478546856972668  0.2452366244497209  0.0009462606110861
  0.5021453143027332  0.2452366244497209  0.2490537393889140
  0.7478546856972668  0.0047633755502790  0.2490537393889140
  0.5033835525129151  0.0007341671578313  0.5007685480989530
  0.7466164474870849  0.2492658328421687  0.5007685480989530
  0.5033835525129151  0.2492658328421687  0.7492314519010470
  0.7466164474870849  0.0007341671578313  0.7492314519010470
  0.0047633755502790  0.5021453143027332  0.0009462606110861
  0.2452366244497209  0.7478546856972668  0.0009462606110861
  0.0047633755502790  0.7478546856972668  0.2490537393889140
  0.2452366244497209  0.5021453143027332  0.2490537393889140
 
  0.00000000E+00  0.00000000E+00  0.00000000E+00
  0.00000000E+00  0.00000000E+00  0.00000000E+00
  0.00000000E+00  0.00000000E+00  0.00000000E+00
  0.00000000E+00  0.00000000E+00  0.00000000E+00
  0.00000000E+00  0.00000000E+00  0.00000000E+00
  0.00000000E+00  0.00000000E+00  0.00000000E+00
  0.00000000E+00  0.00000000E+00  0.00000000E+00
  0.00000000E+00  0.00000000E+00  0.00000000E+00
  0.00000000E+00  0.00000000E+00  0.00000000E+00
  0.00000000E+00  0.00000000E+00  0.00000000E+00
  0.00000000E+00  0.00000000E+00  0.00000000E+00
  0.00000000E+00  0.00000000E+00  0.00000000E+00
  0.00000000E+00  0.00000000E+00  0.00000000E+00
  0.00000000E+00  0.00000000E+00  0.00000000E+00
  0.00000000E+00  0.00000000E+00  0.00000000E+00
  0.00000000E+00  0.00000000E+00  0.00000000E+00
  0.00000000E+00  0.00000000E+00  0.00000000E+00
  0.00000000E+00  0.00000000E+00  0.00000000E+00
  0.00000000E+00  0.00000000E+00  0.00000000E+00
  0.00000000E+00  0.00000000E+00  0.00000000E+00
  0.00000000E+00  0.00000000E+00  0.00000000E+00
  0.00000000E+00  0.00000000E+00  0.00000000E+00
  0.00000000E+00  0.00000000E+00  0.00000000E+00
  0.00000000E+00  0.00000000E+00  0.00000000E+00
  0.00000000E+00  0.00000000E+00  0.00000000E+00
  0.00000000E+00  0.00000000E+00  0.00000000E+00
  0.00000000E+00  0.00000000E+00  0.00000000E+00
  0.00000000E+00  0.00000000E+00  0.00000000E+00
  0.00000000E+00  0.00000000E+00  0.00000000E+00
  0.00000000E+00  0.00000000E+00  0.00000000E+00
  0.00000000E+00  0.00000000E+00  0.00000000E+00
  0.00000000E+00  0.00000000E+00  0.00000000E+00
