bcc_Al6_Cu6_Nb3_Ni6_Ta3_W0_Zr0          
   1.00000000000000     
     8.7611700514588424    0.0000000000000000    0.0000000000000000
     0.0000000000000000    6.3450903857240855    0.0590026765587460
     0.0000000000000000    0.0602067628868986    6.0426739095275712
   Al   Cu   Nb   Ni   Ta
     6     6     3     6     3
Direct
  0.1666666666666643  0.7055837060343839  0.7617969856787000
  0.5000000000000000  0.7055837060343839  0.7617969856787000
  0.8333333333333357  0.7055837060343839  0.7617969856787000
  0.1666666666666643  0.7569109443946568  0.2384690886810460
  0.5000000000000000  0.7569109443946568  0.2384690886810460
  0.8333333333333357  0.7569109443946568  0.2384690886810460
  0.1666666666666643  0.2864977416111120  0.7716040369570115
  0.5000000000000000  0.2864977416111120  0.7716040369570115
  0.8333333333333357  0.2864977416111120  0.7716040369570115
  0.0000000000000000  0.4997230826251229  0.4798941770465348
  0.3333333333333357  0.4997230826251229  0.4798941770465348
  0.6666666666666643  0.4997230826251229  0.4798941770465348
  0.0000000000000000  0.0105320385203684  0.5293413778978993
  0.3333333333333357  0.0105320385203684  0.5293413778978993
  0.6666666666666643  0.0105320385203684  0.5293413778978993
  0.0000000000000000 -0.0193818680969440 -0.0248538355295756
  0.3333333333333357 -0.0193818680969440 -0.0248538355295756
  0.6666666666666643 -0.0193818680969440 -0.0248538355295756
  0.0000000000000000  0.5244477859270940  0.0276472225892308
  0.3333333333333357  0.5244477859270940  0.0276472225892308
  0.6666666666666643  0.5244477859270940  0.0276472225892308
  0.1666666666666643  0.2356865689842061  0.2161009466791533
  0.5000000000000000  0.2356865689842061  0.2161009466791533
  0.8333333333333357  0.2356865689842061  0.2161009466791533
 
  0.00000000E+00  0.00000000E+00  0.00000000E+00
  0.00000000E+00  0.00000000E+00  0.00000000E+00
  0.00000000E+00  0.00000000E+00  0.00000000E+00
  0.00000000E+00  0.00000000E+00  0.00000000E+00
  0.00000000E+00  0.00000000E+00  0.00000000E+00
  0.00000000E+00  0.00000000E+00  0.00000000E+00
  0.00000000E+00  0.00000000E+00  0.00000000E+00
  0.00000000E+00  0.00000000E+00  0.00000000E+00
  0.00000000E+00  0.00000000E+00  0.00000000E+00
  0.00000000E+00  0.00000000E+00  0.00000000E+00
  0.00000000E+00  0.00000000E+00  0.00000000E+00
  0.00000000E+00  0.00000000E+00  0.00000000E+00
  0.00000000E+00  0.00000000E+00  0.00000000E+00
  0.00000000E+00  0.00000000E+00  0.00000000E+00
  0.00000000E+00  0.00000000E+00  0.00000000E+00
  0.00000000E+00  0.00000000E+00  0.00000000E+00
  0.00000000E+00  0.00000000E+00  0.00000000E+00
  0.00000000E+00  0.00000000E+00  0.00000000E+00
  0.00000000E+00  0.00000000E+00  0.00000000E+00
  0.00000000E+00  0.00000000E+00  0.00000000E+00
  0.00000000E+00  0.00000000E+00  0.00000000E+00
  0.00000000E+00  0.00000000E+00  0.00000000E+00
  0.00000000E+00  0.00000000E+00  0.00000000E+00
  0.00000000E+00  0.00000000E+00  0.00000000E+00
