Nb4 Al4 Cu4                             
   1.00000000000000     
    -2.4502728571903680   -4.3570112180204035   -0.0000018997180356
    -2.5480930516000524    4.4134880571778474   -0.0000021373041367
    -0.0000066726582269    0.0000000681943177   -8.1043395468814037
   Nb   Al   Cu
     4     4     4
Direct
  0.6724048526956392  0.3362076181169824  0.5623388510845559
  0.3234085261463642  0.6616894251907202  0.4324617084904013
  0.3234020667082351  0.6616845025679270  0.0675387888650323
  0.6724014373194656  0.3362042548211062  0.9376617171072507
  0.9880573558632166  0.9939769656769435  0.4874768020985787
  0.9880345616839793  0.9939645262568870  0.0125219150767979
  0.1878975029416648  0.3523356853880494  0.7500012854346542
  0.1876586917871854  0.8355102873077712  0.7500023158714915
  0.6768106753539151  0.8386206572554226  0.7499969553227581
  0.8203916073087132  0.6495797911619717  0.2500030867170431
  0.8201220733335488  0.1704160290576355  0.2500024202217155
  0.3394106388580646  0.1698082671985894  0.2499941537097131
 
  0.00000000E+00  0.00000000E+00  0.00000000E+00
  0.00000000E+00  0.00000000E+00  0.00000000E+00
  0.00000000E+00  0.00000000E+00  0.00000000E+00
  0.00000000E+00  0.00000000E+00  0.00000000E+00
  0.00000000E+00  0.00000000E+00  0.00000000E+00
  0.00000000E+00  0.00000000E+00  0.00000000E+00
  0.00000000E+00  0.00000000E+00  0.00000000E+00
  0.00000000E+00  0.00000000E+00  0.00000000E+00
  0.00000000E+00  0.00000000E+00  0.00000000E+00
  0.00000000E+00  0.00000000E+00  0.00000000E+00
  0.00000000E+00  0.00000000E+00  0.00000000E+00
  0.00000000E+00  0.00000000E+00  0.00000000E+00
