bcc_Al0_Cu6_Nb9_Ni0_Ta9_W0_Zr0          
   1.00000000000000     
    10.2189567838597775    0.0000000000000000    0.0000000000000000
     0.0000000000000000    6.2943724363305771    0.0114589695750220
     0.0000000000000000    0.0114589695750220    6.2943724363305771
   Cu   Nb   Ta
     6     9     9
Direct
  0.1666666666666643  0.7390413658245172  0.7390413658245172
  0.5000000000000000  0.7390413658245172  0.7390413658245172
  0.8333333333333357  0.7390413658245172  0.7390413658245172
  0.0000000000000000  0.5099585252678966  0.5099585252678966
  0.3333333333333357  0.5099585252678966  0.5099585252678966
  0.6666666666666643  0.5099585252678966  0.5099585252678966
  0.0000000000000000 -0.0032922587422527 -0.0032922587422527
  0.3333333333333357 -0.0032922587422527 -0.0032922587422527
  0.6666666666666643 -0.0032922587422527 -0.0032922587422527
  0.1666666666666643  0.7502545669972004  0.2533901918375869
  0.5000000000000000  0.7502545669972004  0.2533901918375869
  0.8333333333333357  0.7502545669972004  0.2533901918375869
  0.1666666666666643  0.2533901918375869  0.7502545669972004
  0.5000000000000000  0.2533901918375869  0.7502545669972004
  0.8333333333333357  0.2533901918375869  0.7502545669972004
  0.0000000000000000 -0.0086201443195152  0.5013782334665148
  0.3333333333333357 -0.0086201443195152  0.5013782334665148
  0.6666666666666643 -0.0086201443195152  0.5013782334665148
  0.0000000000000000  0.5013782334665148 -0.0086201443195152
  0.3333333333333357  0.5013782334665148 -0.0086201443195152
  0.6666666666666643  0.5013782334665148 -0.0086201443195152
  0.1666666666666643  0.2578895196680518  0.2578895196680518
  0.5000000000000000  0.2578895196680518  0.2578895196680518
  0.8333333333333357  0.2578895196680518  0.2578895196680518
 
  0.00000000E+00  0.00000000E+00  0.00000000E+00
  0.00000000E+00  0.00000000E+00  0.00000000E+00
  0.00000000E+00  0.00000000E+00  0.00000000E+00
  0.00000000E+00  0.00000000E+00  0.00000000E+00
  0.00000000E+00  0.00000000E+00  0.00000000E+00
  0.00000000E+00  0.00000000E+00  0.00000000E+00
  0.00000000E+00  0.00000000E+00  0.00000000E+00
  0.00000000E+00  0.00000000E+00  0.00000000E+00
  0.00000000E+00  0.00000000E+00  0.00000000E+00
  0.00000000E+00  0.00000000E+00  0.00000000E+00
  0.00000000E+00  0.00000000E+00  0.00000000E+00
  0.00000000E+00  0.00000000E+00  0.00000000E+00
  0.00000000E+00  0.00000000E+00  0.00000000E+00
  0.00000000E+00  0.00000000E+00  0.00000000E+00
  0.00000000E+00  0.00000000E+00  0.00000000E+00
  0.00000000E+00  0.00000000E+00  0.00000000E+00
  0.00000000E+00  0.00000000E+00  0.00000000E+00
  0.00000000E+00  0.00000000E+00  0.00000000E+00
  0.00000000E+00  0.00000000E+00  0.00000000E+00
  0.00000000E+00  0.00000000E+00  0.00000000E+00
  0.00000000E+00  0.00000000E+00  0.00000000E+00
  0.00000000E+00  0.00000000E+00  0.00000000E+00
  0.00000000E+00  0.00000000E+00  0.00000000E+00
  0.00000000E+00  0.00000000E+00  0.00000000E+00
