POSCAR file written by OVITO Basic 3.9.4
1
7.1455525 0.0 0.0
0.0397208042 16.3533215239 0.0
-0.0665251184 -0.0749478655 7.0362298828
Al Zr W Ta Ni Cu 
3 23 23 6 3 3 
Cartesian
1.7831 5.29962 3.48988
1.78992 7.05932 5.24342
5.34691 7.10264 1.74616
6.9479514869 9.0816463368 3.7703527714
3.3367735447 16.2852745521 6.837238897
3.6866594591 16.1095245521 3.5513699785
3.683902934 12.4620945521 6.7345242208
3.5084491523 12.5519945521 3.6976985576
2.0454668663 10.6965745521 3.0946336062
1.6266003589 14.4164945521 6.9622900319
5.3891124471 10.6617945521 6.7747084718
5.2256582236 11.0605845521 3.849302777
5.3018963808 14.8090245521 0.3081803098
1.9383286418 16.1611745521 1.8376321516
1.5388831062 9.1600205521 5.2694118729
1.6067842209 12.7696245521 2.100743781
5.1817658636 9.1755105521 1.9653551116
5.1952786191 9.3216855521 5.0942955918
5.1937365072 12.6033845521 1.4626536302
5.534938404 12.6332945521 5.4678556169
0.1695455655 11.1251645521 5.0420735539
0.304186392 14.5947245521 1.7573413756
6.9818056205 14.4671745521 5.0143254348
3.2315147691 10.8054045521 5.2066094073
3.3584113023 14.0948145521 1.6973467553
3.9965853988 14.5697245521 5.3441355368
0.0372859 7.08446 3.49555
0.0384963 3.55759 0.0087845
3.52556 3.51508 3.48802
1.74511 1.74131 3.48964
1.75559 5.26959 6.97833
5.24373 1.69682 6.97482
5.27847 1.74517 3.49511
5.35591 5.34021 0.00588119
5.31378 5.31276 3.49128
1.77763 3.54201 1.74468
1.75016 3.50677 5.23304
5.31507 7.06541 5.24665
5.27428 3.5074 5.23915
7.05708 1.7611 1.74352
7.02752 1.71741 5.2457
7.08792 5.32216 1.7486
3.53628 1.75735 1.747
3.49552 1.72613 5.24914
3.57422 5.32236 1.7548
3.53246 5.29369 5.24354
0.0681560451 12.8580645521 3.5435099546
6.913576807 10.6461945521 1.9361982119
3.6373600692 11.0508845521 1.8128959082
0.0485478031 16.3086745521 0.1786017429
0.1395534167 12.5315845521 7.041861844
1.6838030723 10.8625845521 0.4617121297
1.8610495591 14.6191645521 4.2030232856
5.1765034067 14.3248445521 3.316550549
1.901693846 12.6393145521 5.5318239699
3.53822 7.04288 6.98282
1.79016 1.77385 0.00491835
0.0141268 5.29259 5.23382
0.00993485 3.52234 3.49342
3.49543 3.49155 6.98072
5.32278 3.53917 1.74065
