Al5 Cu1 W2 
1.0
3.7889648131503302e+00 0.0000000000000000e+00 0.0000000000000000e+00 
-4.5880285844664004e-09 3.7889626603525626e+00 0.0000000000000000e+00 
2.6208543538221975e-07 -3.2104354131733973e-07 8.2995325790841097e+00 
Al Cu W 
5 1 2 
Cartesian
   0.0000000928    1.8944812462    2.1707759442
   1.8944824751   -0.0000000319    2.1707759442
   1.8944824043    1.8944813302    0.0000001021
   1.8944826001   -0.0000001861    6.1287566349
   0.0000005011    1.8944810931    6.1287566349
   0.0000002624    3.7889624998    4.1497662895
   3.7889572352    0.0000036292    0.0000001097
   1.8944825353    1.8944811697    4.1497662895
