Ta1 W3 
1.0
4.5324151500086645e+00 0.0000000000000000e+00 0.0000000000000000e+00 
2.2662075750167032e+00 3.9251866604158918e+00 0.0000000000000000e+00 
2.2662075750078201e+00 1.3083955534705658e+00 3.7007014733273569e+00 
Ta W 
1 3 
Cartesian
   6.7986227250    3.9251866604    2.7755261050
   2.2662075750    3.9251866604    0.0000000000
   4.5324151500    2.6167911069    1.8503507367
   2.2662075750    1.3083955535    0.9251753683
