Zr2                                     
   1.00000000000000     
     3.2328186583931728    0.0000000011423115    0.0000000000000000
    -1.6164098272175216    2.7997037447500754    0.0000000000000000
     0.0000000000000000   -0.0000000000000000    5.1679650960794596
   Zr
     2
Direct
  0.3333330000000032  0.6666669999999968  0.2500000000000000
  0.6666669999999968  0.3333330000000032  0.7500000000000000
 
  0.00000000E+00  0.00000000E+00  0.00000000E+00
  0.00000000E+00  0.00000000E+00  0.00000000E+00
