Al9 Cu9 Nb6 
1.0
8.1168289736280315e+00 0.0000000000000000e+00 0.0000000000000000e+00 
1.3075695820429154e-04 4.8901769222186884e+00 0.0000000000000000e+00 
-3.3490612864982633e-05 3.5509134325938158e-01 9.1482200504658433e+00 
Al Cu Nb 
9 9 6 
Cartesian
   8.1167124024    3.3300070922    2.3000454851
   1.3528707766    2.3837289955    0.1055137404
   2.7058881057    3.3300067371    2.3000363369
   2.7205025530    0.2344473803    4.5294758596
   4.1025154550    2.6963056976    4.5029551697
   6.7200223456    2.6963060527    4.5029643179
   8.1019033447    0.2344488474    4.5294758596
   1.3528060303    1.1919561869    7.1030714206
   5.4112827733    3.4680254568    6.8057451208
   1.3528206015    0.8839247632    2.2491173441
   2.7328013987    4.7068265550    0.2197686051
   4.0475622151    1.0442354433    2.5026236699
   8.0898841708    4.7068265195    0.2197676903
   6.7749141522    1.0442354433    2.5026236699
   5.4113155040    5.0195675388    8.6691094700
   5.4113345544    5.0252722003    4.6472134517
   4.0386663340    1.1693877632    6.6349021113
   6.7837778930    1.1693926534    6.6349021113
   5.4113008904    3.6114578632    2.0387906169
   1.3528492214    2.6759897509    4.6286334167
   2.7024418617    3.6647002743    6.9341678339
   0.0033002395    3.6646950290    6.9341586856
   4.0925289465    2.4957461450    9.1417797036
   6.7299545354    2.4957461450    9.1417797036
