Al6 Ni3 Cu6 Zr6 Nb3 
1.0
1.2877617439194131e+01 0.0000000000000000e+00 0.0000000000000000e+00 
4.5599447539559572e-05 5.6315216839745652e+00 0.0000000000000000e+00 
-8.7245976710868605e-05 -3.7299500269377200e-01 5.4731160969214221e+00 
Al Ni Cu Zr Nb 
6 3 6 6 3 
Cartesian
   2.1462165244    0.4796141293    3.9784847145
  12.8775807765    1.8501706138    3.3558958660
   4.2924981912    1.8501706138    3.3558958660
   6.4387513782    0.4796141293    3.9784847145
   8.5850459226    1.8501706138    3.3558958660
  10.7312862321    0.4796141293    3.9784847145
   4.2925616814    3.5003147274    0.0984553382
  12.8776442667    3.5003147274    0.0984553382
   8.5851094129    3.5003147274    0.0984553382
   4.2924528401    0.0658300458    5.3640150006
   2.1462997458    5.0344450214    0.9672309691
   6.4388345997    5.0344450214    0.9672309691
   8.5850005716    0.0658300458    5.3640150006
  -0.0000819751    0.0658300458    5.3640150006
  10.7313694536    5.0344450214    0.9672309691
   2.1462698206    2.1422929823    1.3900620263
   4.2925333099    4.5895769616    2.5152142873
   6.4388046745    2.1422929823    1.3900620263
   8.5850810413    4.5895769616    2.5152142873
  -0.0000015239    4.5895769616    2.5152142873
  10.7313395283    2.1422929823    1.3900620263
   2.1462361790    3.3718718544    4.2231056384
   6.4387710329    3.3718718544    4.2231056384
  10.7313058867    3.3718718544    4.2231056384
