bcc_Al3_Cu12_Nb3_Ni0_Ta3_W0_Zr3         
   1.00000000000000     
     9.2547222384645629    0.0000000000000000    0.0000000000000000
     0.0000000000000000    6.4384368168011745   -0.0392944977774538
     0.0000000000000000   -0.0409282019751764    6.2322572108749315
   Al   Cu   Nb   Ta   Zr
     3    12     3     3     3
Direct
  0.1666666666666643  0.7813400977550752  0.7490638610914703
  0.5000000000000000  0.7813400977550752  0.7490638610914703
  0.8333333333333357  0.7813400977550752  0.7490638610914703
  0.1666666666666643  0.2305082020370781  0.7656291075169057
  0.5000000000000000  0.2305082020370781  0.7656291075169057
  0.8333333333333357  0.2305082020370781  0.7656291075169057
 -0.0000000000000000  0.4888946165935293 -0.0312572468688794
  0.3333333333333357  0.4888946165935293 -0.0312572468688794
  0.6666666666666643  0.4888946165935293 -0.0312572468688794
 -0.0000000000000000  0.0140241853366756  0.5223996637835008
  0.3333333333333357  0.0140241853366756  0.5223996637835008
  0.6666666666666643  0.0140241853366756  0.5223996637835008
 -0.0000000000000000  0.0066641207982329 -0.0236335380663990
  0.3333333333333357  0.0066641207982329 -0.0236335380663990
  0.6666666666666643  0.0066641207982329 -0.0236335380663990
  0.1666666666666643  0.2445740256803024  0.2411901104042148
  0.5000000000000000  0.2445740256803024  0.2411901104042148
  0.8333333333333357  0.2445740256803024  0.2411901104042148
 -0.0000000000000000  0.4801522036926464  0.5283125030945042
  0.3333333333333357  0.4801522036926464  0.5283125030945042
  0.6666666666666643  0.4801522036926464  0.5283125030945042
  0.1666666666666643  0.7538425481064598  0.2482955390446831
  0.5000000000000000  0.7538425481064598  0.2482955390446831
  0.8333333333333357  0.7538425481064598  0.2482955390446831
 
  0.00000000E+00  0.00000000E+00  0.00000000E+00
  0.00000000E+00  0.00000000E+00  0.00000000E+00
  0.00000000E+00  0.00000000E+00  0.00000000E+00
  0.00000000E+00  0.00000000E+00  0.00000000E+00
  0.00000000E+00  0.00000000E+00  0.00000000E+00
  0.00000000E+00  0.00000000E+00  0.00000000E+00
  0.00000000E+00  0.00000000E+00  0.00000000E+00
  0.00000000E+00  0.00000000E+00  0.00000000E+00
  0.00000000E+00  0.00000000E+00  0.00000000E+00
  0.00000000E+00  0.00000000E+00  0.00000000E+00
  0.00000000E+00  0.00000000E+00  0.00000000E+00
  0.00000000E+00  0.00000000E+00  0.00000000E+00
  0.00000000E+00  0.00000000E+00  0.00000000E+00
  0.00000000E+00  0.00000000E+00  0.00000000E+00
  0.00000000E+00  0.00000000E+00  0.00000000E+00
  0.00000000E+00  0.00000000E+00  0.00000000E+00
  0.00000000E+00  0.00000000E+00  0.00000000E+00
  0.00000000E+00  0.00000000E+00  0.00000000E+00
  0.00000000E+00  0.00000000E+00  0.00000000E+00
  0.00000000E+00  0.00000000E+00  0.00000000E+00
  0.00000000E+00  0.00000000E+00  0.00000000E+00
  0.00000000E+00  0.00000000E+00  0.00000000E+00
  0.00000000E+00  0.00000000E+00  0.00000000E+00
  0.00000000E+00  0.00000000E+00  0.00000000E+00
