Al3 Ni6 Nb3 Ta12 
1.0
1.0135063407928541e+01 0.0000000000000000e+00 0.0000000000000000e+00 
3.7172495215141005e-04 6.3470304875410148e+00 0.0000000000000000e+00 
3.2068261278459371e-04 1.3530642353391298e-01 5.9963705698001863e+00 
Al Ni Nb Ta 
3 6 3 12 
Cartesian
   3.3787026453    3.4202549145    2.8996769092
  10.1354149622    3.4202549145    2.8996769092
   6.7570638713    3.4202549145    2.8996769092
   0.0005210056    6.2727780325    2.9433904506
   3.3788719883    6.2727780325    2.9433904506
   1.6895383007    4.7496104721    1.5245712210
   5.0678893917    4.7496104721    1.5245712210
   6.7572332143    6.2727780325    2.9433904506
   8.4462404826    4.7496104721    1.5245712210
   1.6895085482    1.6406879218    4.4450675288
   5.0678596392    1.6406879218    4.4450675288
   8.4462107301    1.6406879218    4.4450675288
   1.6897020662    4.9783843399    4.4074882744
   3.3787262813    6.2728361965    0.1497521593
   0.0001876619    3.1978897592    0.0037416693
   3.3785385761    3.1978897604    0.0037417232
   1.6893590823    1.6086300434    1.6154222315
  10.1354385983    6.2728361965    0.1497521593
   5.0677101732    1.6086300434    1.6154222315
   5.0680531571    4.9783843399    4.4074882744
   8.4464042481    4.9783843399    4.4074882744
   6.7570875074    6.2728361965    0.1497521593
   6.7568998021    3.1978897584    0.0037416333
   8.4460612642    1.6086300434    1.6154222315
