Nb1 
1.0
2.8690915846449783e+00 0.0000000000000000e+00 0.0000000000000000e+00 
-9.5636434889322863e-01 2.7050042270219103e+00 0.0000000000000000e+00 
-9.5636231856760789e-01 -1.3525013747527541e+00 2.3426026897537073e+00 
Nb 
1 
Cartesian
   1.9126583593   -1.3524955806    2.3426026898
