fcc_Al0_Cu8_Nb0_Ni8_Ta0_W12_Zr4         
   1.00000000000000     
     7.7850179312676184    0.0000000000000000    0.0000000000000000
     0.0000000000000000    7.7850179312676184   -0.0000000000000000
    -0.0000000000000000    0.0000000000000000    7.7741272962945738
   Cu   Ni   W    Zr
     8     8    12     4
Direct
  0.5116321107236457  0.0116321107236453  0.4884324486780351
  0.7383678892763543  0.2383678892763547  0.4884324486780351
  0.5116321107236457  0.2383678892763547  0.7615675513219650
  0.7383678892763543  0.0116321107236453  0.7615675513219650
 -0.0025946725769319  0.4974053274230681  0.0224710401689473
  0.2525946725769319  0.7525946725769318  0.0224710401689473
 -0.0025946725769319  0.7525946725769318  0.2275289598310527
  0.2525946725769319  0.4974053274230681  0.2275289598310527
  0.5088215236434886  0.5106180124836059  0.0162153353994999
  0.7411784763565114  0.7393819875163941  0.0162153353994999
  0.5088215236434886  0.7393819875163941  0.2337846646005001
  0.7411784763565114  0.5106180124836059  0.2337846646005001
  0.0106180124836059  0.0088215236434884  0.0162153353994999
  0.2393819875163941  0.2411784763565116  0.0162153353994999
  0.0106180124836059  0.2411784763565116  0.2337846646005001
  0.2393819875163941  0.0088215236434884  0.2337846646005001
  0.5189786803383962  0.4902227161642844  0.4881681518124830
  0.7310213196616038  0.7597772838357159  0.4881681518124830
  0.5189786803383962  0.7597772838357159  0.7618318481875174
  0.7310213196616038  0.4902227161642843  0.7618318481875174
 -0.0097772838357158  0.0189786803383961  0.4881681518124830
  0.2597772838357156  0.2310213196616038  0.4881681518124830
 -0.0097772838357158  0.2310213196616038  0.7618318481875174
  0.2597772838357157  0.0189786803383961  0.7618318481875174
  0.4947766532644186 -0.0052233467355814  0.0203953620763935
  0.7552233467355814  0.2552233467355813  0.0203953620763935
  0.4947766532644186  0.2552233467355813  0.2296046379236065
  0.7552233467355814 -0.0052233467355814  0.2296046379236065
 -0.0171485913041073  0.4828514086958928  0.4733878973179985
  0.2671485913041072  0.7671485913041074  0.4733878973179985
 -0.0171485913041073  0.7671485913041074  0.7766121026820013
  0.2671485913041072  0.4828514086958928  0.7766121026820013
 
  0.00000000E+00  0.00000000E+00  0.00000000E+00
  0.00000000E+00  0.00000000E+00  0.00000000E+00
  0.00000000E+00  0.00000000E+00  0.00000000E+00
  0.00000000E+00  0.00000000E+00  0.00000000E+00
  0.00000000E+00  0.00000000E+00  0.00000000E+00
  0.00000000E+00  0.00000000E+00  0.00000000E+00
  0.00000000E+00  0.00000000E+00  0.00000000E+00
  0.00000000E+00  0.00000000E+00  0.00000000E+00
  0.00000000E+00  0.00000000E+00  0.00000000E+00
  0.00000000E+00  0.00000000E+00  0.00000000E+00
  0.00000000E+00  0.00000000E+00  0.00000000E+00
  0.00000000E+00  0.00000000E+00  0.00000000E+00
  0.00000000E+00  0.00000000E+00  0.00000000E+00
  0.00000000E+00  0.00000000E+00  0.00000000E+00
  0.00000000E+00  0.00000000E+00  0.00000000E+00
  0.00000000E+00  0.00000000E+00  0.00000000E+00
  0.00000000E+00  0.00000000E+00  0.00000000E+00
  0.00000000E+00  0.00000000E+00  0.00000000E+00
  0.00000000E+00  0.00000000E+00  0.00000000E+00
  0.00000000E+00  0.00000000E+00  0.00000000E+00
  0.00000000E+00  0.00000000E+00  0.00000000E+00
  0.00000000E+00  0.00000000E+00  0.00000000E+00
  0.00000000E+00  0.00000000E+00  0.00000000E+00
  0.00000000E+00  0.00000000E+00  0.00000000E+00
  0.00000000E+00  0.00000000E+00  0.00000000E+00
  0.00000000E+00  0.00000000E+00  0.00000000E+00
  0.00000000E+00  0.00000000E+00  0.00000000E+00
  0.00000000E+00  0.00000000E+00  0.00000000E+00
  0.00000000E+00  0.00000000E+00  0.00000000E+00
  0.00000000E+00  0.00000000E+00  0.00000000E+00
  0.00000000E+00  0.00000000E+00  0.00000000E+00
  0.00000000E+00  0.00000000E+00  0.00000000E+00
