Al12 Ni12 Zr4 W4 
1.0
7.8005534405152224e+00 0.0000000000000000e+00 0.0000000000000000e+00 
0.0000000000000000e+00 7.7880118949877364e+00 0.0000000000000000e+00 
0.0000000000000000e+00 0.0000000000000000e+00 7.7204520452757155e+00 
Al Ni Zr W 
12 12 4 4 
Cartesian
   0.0813332505    3.7146402455    7.5101160498
   1.8688019894    6.0203746232    7.5101160498
   0.0813332505    6.0203746232    2.1404490068
   1.8688019894    3.7146402455    2.1404490068
   3.6915651124    0.1535601245    7.5566086120
   6.0591266882    1.7934467432    7.5566086120
   3.6915651124    1.7934467432    2.0939564446
   6.0591266882    0.1535601245    2.0939564446
   3.7841186790    7.7743049941    4.0538781213
   5.9665731217    1.9607098747    4.0538781213
   3.7841186790    1.9607098747    5.5966869353
   5.9665731217    7.7743049941    5.5966869353
   0.0507581232    0.0960845968    3.8877339933
   1.8993801589    1.8509222710    3.8877339933
   0.0507581232    1.8509222710    5.7628310633
   1.8993801589    0.0960845968    5.7628310633
   3.8993640555    3.8196771620    3.8855259440
   5.8513277451    5.9153377068    3.8855259440
   3.8993640555    5.9153377068    5.7650391126
   5.8513277451    3.8196771620    5.7650391126
   0.0577872019    0.0027159601    0.0098248157
   1.8923518602    1.9442849576    0.0098247385
   0.0577871239    1.9442849576    1.9202848759
   1.8923518602    0.0027159991    1.9202848759
   3.7701088850    3.7690395086    7.6538554259
   5.9805829156    5.9659753601    7.6538554259
   3.7701088850    5.9659753601    1.9967096307
   5.9805829156    3.7690395086    1.9967096307
   0.0230924464    3.8238671124    4.0488907093
   1.9270487219    5.9111477564    4.0488907093
   0.0230924464    5.9111477564    5.6016743473
   1.9270487219    3.8238671124    5.6016743473
