fcc_Al8_Cu0_Nb16_Ni0_Ta0_W8_Zr0         
   1.00000000000000     
     9.0443812863445281    0.0000000000000000    0.0000000000000000
     0.0000000000000000    6.6309070712302454    0.0000000000000000
     0.0000000000000000    0.0000000000000000    9.0714914472148536
   Al   Nb   W 
     8    16     8
Direct
  0.5013915141825447  0.4932416375992926 -0.0051911871260843
  0.7486084858174553  0.7567583624007072 -0.0051911871260843
  0.5013915141825447  0.7567583624007072  0.2551911871260844
  0.7486084858174553  0.4932416375992926  0.2551911871260844
  0.4986146669289088  0.0065405301253049 -0.0040243466494148
  0.7513853330710909  0.2434594698746951 -0.0040243466494148
  0.4986146669289088  0.2434594698746951  0.2540243466494148
  0.7513853330710909  0.0065405301253049  0.2540243466494148
 -0.0065562600674920  0.5029368868540081  0.0026696433887838
  0.2565562600674920  0.7470631131459919  0.0026696433887838
 -0.0065562600674920  0.7470631131459919  0.2473303566112162
  0.2565562600674920  0.5029368868540081  0.2473303566112162
 -0.0037167300203567 -0.0027839884198731  0.0021926344882168
  0.2537167300203567  0.2527839884198730  0.0021926344882168
 -0.0037167300203567  0.2527839884198730  0.2478073655117833
  0.2537167300203567 -0.0027839884198731  0.2478073655117833
 -0.0033498048112645 -0.0017399775342005  0.4993031834510707
  0.2533498048112645  0.2517399775342005  0.4993031834510707
 -0.0033498048112645  0.2517399775342005  0.7506968165489291
  0.2533498048112645 -0.0017399775342005  0.7506968165489291
  0.5057182194843779  0.4982995345535666  0.4958691012025910
  0.7442817805156222  0.7517004654464328  0.4958691012025910
  0.5057182194843778  0.7517004654464328  0.7541308987974090
  0.7442817805156222  0.4982995345535666  0.7541308987974090
  0.5036264138002606  0.0019216719677899  0.4991695339793754
  0.7463735861997394  0.2480783280322101  0.4991695339793754
  0.5036264138002606  0.2480783280322101  0.7508304660206243
  0.7463735861997394  0.0019216719677899  0.7508304660206243
 -0.0023031521956896  0.5011353077986809  0.5003281489455100
  0.2523031521956895  0.7488646922013191  0.5003281489455100
 -0.0023031521956896  0.7488646922013191  0.7496718510544899
  0.2523031521956895  0.5011353077986809  0.7496718510544899
 
  0.00000000E+00  0.00000000E+00  0.00000000E+00
  0.00000000E+00  0.00000000E+00  0.00000000E+00
  0.00000000E+00  0.00000000E+00  0.00000000E+00
  0.00000000E+00  0.00000000E+00  0.00000000E+00
  0.00000000E+00  0.00000000E+00  0.00000000E+00
  0.00000000E+00  0.00000000E+00  0.00000000E+00
  0.00000000E+00  0.00000000E+00  0.00000000E+00
  0.00000000E+00  0.00000000E+00  0.00000000E+00
  0.00000000E+00  0.00000000E+00  0.00000000E+00
  0.00000000E+00  0.00000000E+00  0.00000000E+00
  0.00000000E+00  0.00000000E+00  0.00000000E+00
  0.00000000E+00  0.00000000E+00  0.00000000E+00
  0.00000000E+00  0.00000000E+00  0.00000000E+00
  0.00000000E+00  0.00000000E+00  0.00000000E+00
  0.00000000E+00  0.00000000E+00  0.00000000E+00
  0.00000000E+00  0.00000000E+00  0.00000000E+00
  0.00000000E+00  0.00000000E+00  0.00000000E+00
  0.00000000E+00  0.00000000E+00  0.00000000E+00
  0.00000000E+00  0.00000000E+00  0.00000000E+00
  0.00000000E+00  0.00000000E+00  0.00000000E+00
  0.00000000E+00  0.00000000E+00  0.00000000E+00
  0.00000000E+00  0.00000000E+00  0.00000000E+00
  0.00000000E+00  0.00000000E+00  0.00000000E+00
  0.00000000E+00  0.00000000E+00  0.00000000E+00
  0.00000000E+00  0.00000000E+00  0.00000000E+00
  0.00000000E+00  0.00000000E+00  0.00000000E+00
  0.00000000E+00  0.00000000E+00  0.00000000E+00
  0.00000000E+00  0.00000000E+00  0.00000000E+00
  0.00000000E+00  0.00000000E+00  0.00000000E+00
  0.00000000E+00  0.00000000E+00  0.00000000E+00
  0.00000000E+00  0.00000000E+00  0.00000000E+00
  0.00000000E+00  0.00000000E+00  0.00000000E+00
