Cu4 Zr4 Nb12 W12 
1.0
7.5787137104673423e+00 0.0000000000000000e+00 0.0000000000000000e+00 
8.1483395905496721e-07 9.2362284625571061e+00 0.0000000000000000e+00 
-9.3340157281317896e-07 -2.2914940456307154e-06 7.8157265325375036e+00 
Cu Zr Nb W 
4 4 12 12 
Cartesian
   3.8837270052    0.1538598481    0.0563867154
   5.5896653231    2.1552000054    0.0563867935
   3.8837269619    2.1551994656    1.8975489819
   5.5896649267    0.1538593083    1.8975489819
   5.4029939723    4.5126820250    2.2455832844
   4.0703902166    4.5126804774    7.5240748812
   4.0703910693    7.0326022364    2.2455832844
   5.4030011429    7.0326006888    7.5240748812
   0.2459731836    4.5669352195    3.6489047991
   1.8670462017    2.2863995734    3.6624650846
   0.0276325400    0.0226574266    3.6624729003
   3.6883624541    0.0470238193    3.9047995015
   5.7850289550    2.2620343317    3.9047995015
   1.6487033674    4.5669344948    6.1207533666
   1.8670457101    0.0226589265    6.1071930811
   0.0276332814    2.2863988567    6.1071930811
   3.6883624155    2.2620337570    5.8648586642
   5.7850285255    0.0470240759    5.8648586642
   1.6487038753    6.9783389828    3.6489047991
   0.2459693118    6.9783382581    6.1207455509
   1.9642284593    2.2993313010    0.2254039901
   7.5091562725    2.2993308603    1.7285260799
   2.0873522712    4.6110295484    1.6905729119
   1.9642356565    0.0097282897    1.7285260799
   7.3860404471    4.6110299668    0.2633579397
   7.5091562500    0.0097299311    0.2254039901
   3.4644951982    4.6497378401    4.2206486421
   6.0089041723    4.6497374506    5.5490095236
   2.0873602253    6.9342554569    0.2633634107
   7.3860404817    6.9342550385    1.6905729119
   3.4644876590    6.8955448737    5.5490095236
   6.0089045290    6.8955452632    4.2206486421
