Converted from final.data
1.0
14.8496192349300937 0.0000000000000000 0.0000000000000000
-0.0240884713297466 15.8049460954714025 0.0000000000000000
-0.1651234831495738 0.2610736710693097 31.5419966827537124
Al Zr W Ta Ni
18 4 17 18 3
Direct
0.6025097186092814 0.3407653678326044 0.1662039259063742
0.1839677785204970 0.2480605504979125 0.0920589490546458
0.2555064912951192 0.3897175415728505 0.1889860094713233
0.5654111174756749 0.1208176343663184 -0.0372489398866935
0.8228182449481742 0.2824380051863815 -0.0238704277295709
0.3000672990964209 0.8792003915977028 -0.0231958520474505
0.3203716958003018 0.5363594708045047 0.0611425555047970
0.4618847120415948 0.0539282041172068 0.3826094423061162
-0.0430787157936499 0.1847042123951417 0.4907228262693983
0.2875070766290038 0.0742561348711265 0.4096131354474588
0.3916289678170803 0.6490199543758977 0.5298088602160160
0.6557361172296849 -0.0321349387413644 0.5178365591972180
0.0601655948387489 0.7084485291339651 0.2558312886700772
0.2951143663641860 0.1010263762821683 0.1022358804336004
0.5961280335090461 0.0828890465282942 0.2714431565262211
0.9600884999052050 0.3693659809048673 0.4048960349090902
0.1926553497131811 0.4080937074640869 0.4576797207778808
0.3535344680654176 0.4283247342792316 0.3389200465265383
0.9883138122098796 0.3641053712347592 0.5009157126716224
0.4975340180058456 0.4917449530089894 0.1140150031033808
0.1200240703872171 0.0928676031755715 0.0600638209981298
0.6626573230557189 0.2083966504950377 0.0384575549788407
0.5096893849801816 0.2320156505178864 0.2075157498401451
0.1356520594241241 -0.0495621917005185 0.1944176480280383
0.4374240894999677 0.9755906735626326 0.1991014937817178
0.3092145198479147 0.1982655969492265 0.1875388513440165
0.2296275364191886 0.1039535361430981 0.2535900833221559
0.4225865116351903 0.5570105226589563 0.4005365998428694
0.3565122261894454 0.1041469531405692 0.3114615205311103
0.3498779478326073 0.4084269187165562 0.4141227299467320
0.0695130597323042 0.2992728062997187 0.4199031057781344
0.1482248288755205 -0.0196881745691138 0.4265704522780402
0.0088475972918373 -0.0110375129235434 0.3482666931706977
0.2155102853226881 0.3189585424112660 0.3768672484802876
0.9018909655271476 0.2641309136333895 0.3152152918855073
0.2484091110191472 0.4280541918358531 -0.0022030937711685
0.8845895297648226 0.0258734451518427 0.1106215328852201
0.4661135066630046 0.0923945085847530 0.1389020565398946
0.9327233948192515 0.3945546659274562 0.0184081258057089
0.1626634594265030 0.2664106392083552 0.2338253451153486
0.2665809360127809 0.8724093780976959 0.1908464511425272
0.3292596847257731 0.3006532913579886 0.2575547331880228
0.1569134977814175 0.9364934590831892 0.3352667385826111
-0.0301965193381383 0.0812958397033942 0.2011752386268720
0.9973441837690454 0.1799331756801921 0.3881578289164262
0.0217718473622232 0.1437643595889972 0.3001427227824432
0.4900117021096478 0.9909768082655450 0.2917575159310147
0.0341586333566752 0.6534030446989094 0.5063198722990878
0.4278514242131456 0.0805175788277096 0.2251632554479768
0.9678816851957001 0.4258296091255560 0.1953158357050789
0.2960386214022611 0.9993200493601985 0.2696519288417695
0.3216281653525943 0.3360041943850487 0.5104729206606491
0.8857794150943493 0.5814149908803312 0.2010603079025354
0.0191672367810435 0.3086653332723328 0.0718368304024960
0.0121316980924798 -0.0325130618737289 0.1129420385692626
0.1574976300297760 0.1153419899783974 0.1626944003857084
0.1277628453142908 0.2886047051373123 0.5096862568124730
-0.0114796236624099 0.3586742058508470 0.2671996982279909
0.0489885519490497 0.6620113662158509 -0.0241763005844400
0.5814629843540904 0.6998760203625773 0.1220996611143190
