Al3 Cu1
1.0
   3.9241510000000002    0.0000000000000000    0.0000000000000000
   0.0000000000000000    3.9241510000000002    0.0000000000000000
   0.0000000000000000    0.0000000000000000    3.9241510000000002
Al Cu
3 1
direct
   0.0000000000000000    0.5000000000000000    0.5000000000000000 Al
   0.5000000000000000    0.0000000000000000    0.5000000000000000 Al
   0.5000000000000000    0.5000000000000000    0.0000000000000000 Al
   0.0000000000000000    0.0000000000000000    0.0000000000000000 Cu
