Al4 Cu4 Nb4 
1.0
4.9574505433183695e+00 0.0000000000000000e+00 0.0000000000000000e+00 
-2.6355012229576471e+00 4.3800520931531972e+00 0.0000000000000000e+00 
-2.9148803456145753e-06 1.3367556909624798e-06 8.1669338405333374e+00 
Al Cu Nb 
4 4 4 
Cartesian
   2.2812944591    4.3556032942    3.9826052873
   2.2812958445    4.3556026589    0.1008657164
   0.0143917327    1.5461769117    6.1252003804
  -1.2626382494    3.6686099943    6.1252003804
   2.3490778990    2.8493994229    2.0417334601
   3.6177790701    0.7408248250    2.0417334601
   1.2232869189    0.7360856087    2.0417334601
   1.1564763700    3.6787147745    6.1252003804
  -0.1771565206    2.8763764115    3.5558584934
  -0.1771554398    2.8763759159    0.5276100603
   2.4734881099    1.4882942705    4.5812415378
   2.4734870078    1.4882947760    7.6691592230
