fcc_Al0_Cu0_Nb12_Ni4_Ta0_W12_Zr4        
   1.00000000000000     
     9.0554722856256831   -0.0000000000000000   -0.0000000000000000
    -0.0000000000000000    7.8309461775554441    0.0000000000000000
    -0.0000000000000000   -0.0000000000000000    7.8309461775554441
   Nb   Ni   W    Zr
    12     4    12     4
Direct
  0.0072212123125308  0.4812229066671022  0.4812229066671022
  0.2427787876874691  0.7687770933328976  0.4812229066671022
  0.0072212123125308  0.7687770933328976  0.7687770933328976
  0.2427787876874691  0.4812229066671022  0.7687770933328976
  0.4988568409565962  0.0195800311694294  0.4857082073556553
  0.7511431590434036  0.2304199688305707  0.4857082073556553
  0.4988568409565962  0.2304199688305707  0.7642917926443448
  0.7511431590434036  0.0195800311694294  0.7642917926443448
  0.4988568409565962  0.4857082073556553  0.0195800311694294
  0.7511431590434036  0.7642917926443448  0.0195800311694294
  0.4988568409565962  0.7642917926443448  0.2304199688305707
  0.7511431590434036  0.4857082073556553  0.2304199688305707
  0.5007111252282951  0.0156055415303997  0.0156055415303997
  0.7492888747717047  0.2343944584696004  0.0156055415303997
  0.5007111252282951  0.2343944584696004  0.2343944584696004
  0.7492888747717047  0.0156055415303997  0.2343944584696004
 -0.0055713513168620  0.0109928262942890  0.0109928262942890
  0.2555713513168620  0.2390071737057111  0.0109928262942890
 -0.0055713513168620  0.2390071737057111  0.2390071737057111
  0.2555713513168620  0.0109928262942890  0.2390071737057111
  0.0032222086983878  0.0192121237280042  0.4871162517654001
  0.2467777913016121  0.2307878762719958  0.4871162517654001
  0.0032222086983878  0.2307878762719958  0.7628837482345999
  0.2467777913016121  0.0192121237280041  0.7628837482345999
  0.0032222086983878  0.4871162517654001  0.0192121237280041
  0.2467777913016122  0.7628837482345999  0.0192121237280041
  0.0032222086983878  0.7628837482345999  0.2307878762719958
  0.2467777913016121  0.4871162517654001  0.2307878762719958
  0.4907926054015189  0.4810206700227228  0.4810206700227228
  0.7592073945984811  0.7689793299772770  0.4810206700227228
  0.4907926054015189  0.7689793299772770  0.7689793299772770
  0.7592073945984811  0.4810206700227228  0.7689793299772770
 
  0.00000000E+00  0.00000000E+00  0.00000000E+00
  0.00000000E+00  0.00000000E+00  0.00000000E+00
  0.00000000E+00  0.00000000E+00  0.00000000E+00
  0.00000000E+00  0.00000000E+00  0.00000000E+00
  0.00000000E+00  0.00000000E+00  0.00000000E+00
  0.00000000E+00  0.00000000E+00  0.00000000E+00
  0.00000000E+00  0.00000000E+00  0.00000000E+00
  0.00000000E+00  0.00000000E+00  0.00000000E+00
  0.00000000E+00  0.00000000E+00  0.00000000E+00
  0.00000000E+00  0.00000000E+00  0.00000000E+00
  0.00000000E+00  0.00000000E+00  0.00000000E+00
  0.00000000E+00  0.00000000E+00  0.00000000E+00
  0.00000000E+00  0.00000000E+00  0.00000000E+00
  0.00000000E+00  0.00000000E+00  0.00000000E+00
  0.00000000E+00  0.00000000E+00  0.00000000E+00
  0.00000000E+00  0.00000000E+00  0.00000000E+00
  0.00000000E+00  0.00000000E+00  0.00000000E+00
  0.00000000E+00  0.00000000E+00  0.00000000E+00
  0.00000000E+00  0.00000000E+00  0.00000000E+00
  0.00000000E+00  0.00000000E+00  0.00000000E+00
  0.00000000E+00  0.00000000E+00  0.00000000E+00
  0.00000000E+00  0.00000000E+00  0.00000000E+00
  0.00000000E+00  0.00000000E+00  0.00000000E+00
  0.00000000E+00  0.00000000E+00  0.00000000E+00
  0.00000000E+00  0.00000000E+00  0.00000000E+00
  0.00000000E+00  0.00000000E+00  0.00000000E+00
  0.00000000E+00  0.00000000E+00  0.00000000E+00
  0.00000000E+00  0.00000000E+00  0.00000000E+00
  0.00000000E+00  0.00000000E+00  0.00000000E+00
  0.00000000E+00  0.00000000E+00  0.00000000E+00
  0.00000000E+00  0.00000000E+00  0.00000000E+00
  0.00000000E+00  0.00000000E+00  0.00000000E+00
