fcc_Al0_Cu4_Nb0_Ni0_Ta0_W0_Zr28         
   1.00000000000000     
     8.8706261578168988    0.0000000000000000   -0.0000000000000000
    -0.0000000000000001    8.8706261578168988   -0.0000000000000000
     0.0000000000000000    0.0000000000000001    8.8706261578168988
   Cu   Zr
     4    28
Direct
  0.5159440446029467  0.5159440446029467  0.5159440446029467
  0.7340559553970533  0.7340559553970533  0.5159440446029467
  0.5159440446029467  0.7340559553970533  0.7340559553970533
  0.7340559553970533  0.5159440446029467  0.7340559553970533
 -0.0042289033447174  0.5023338402173718 -0.0042289033447174
  0.2542289033447173  0.7476661597826282 -0.0042289033447174
 -0.0042289033447174  0.7476661597826282  0.2542289033447173
  0.2542289033447173  0.5023338402173718  0.2542289033447173
  0.5041896851414057 -0.0066868407601995  0.5041896851414057
  0.7458103148585943  0.2566868407601997  0.5041896851414057
  0.5041896851414057  0.2566868407601997  0.7458103148585943
  0.7458103148585943 -0.0066868407601995  0.7458103148585943
 -0.0010560929664203 -0.0010560929664203 -0.0010560929664203
  0.2510560929664203  0.2510560929664203 -0.0010560929664203
 -0.0010560929664203  0.2510560929664203  0.2510560929664203
  0.2510560929664203 -0.0010560929664203  0.2510560929664203
  0.5023338402173718 -0.0042289033447174 -0.0042289033447174
  0.7476661597826282  0.2542289033447173 -0.0042289033447174
  0.5023338402173718  0.2542289033447173  0.2542289033447173
  0.7476661597826282 -0.0042289033447174  0.2542289033447173
  0.5041896851414057  0.5041896851414057 -0.0066868407601995
  0.7458103148585943  0.7458103148585943 -0.0066868407601995
  0.5041896851414057  0.7458103148585943  0.2566868407601997
  0.7458103148585943  0.5041896851414057  0.2566868407601997
 -0.0042289033447174 -0.0042289033447174  0.5023338402173718
  0.2542289033447173  0.2542289033447173  0.5023338402173718
 -0.0042289033447174  0.2542289033447173  0.7476661597826282
  0.2542289033447173 -0.0042289033447174  0.7476661597826282
 -0.0066868407601995  0.5041896851414057  0.5041896851414057
  0.2566868407601997  0.7458103148585943  0.5041896851414057
 -0.0066868407601995  0.7458103148585943  0.7458103148585943
  0.2566868407601997  0.5041896851414057  0.7458103148585943
 
  0.00000000E+00  0.00000000E+00  0.00000000E+00
  0.00000000E+00  0.00000000E+00  0.00000000E+00
  0.00000000E+00  0.00000000E+00  0.00000000E+00
  0.00000000E+00  0.00000000E+00  0.00000000E+00
  0.00000000E+00  0.00000000E+00  0.00000000E+00
  0.00000000E+00  0.00000000E+00  0.00000000E+00
  0.00000000E+00  0.00000000E+00  0.00000000E+00
  0.00000000E+00  0.00000000E+00  0.00000000E+00
  0.00000000E+00  0.00000000E+00  0.00000000E+00
  0.00000000E+00  0.00000000E+00  0.00000000E+00
  0.00000000E+00  0.00000000E+00  0.00000000E+00
  0.00000000E+00  0.00000000E+00  0.00000000E+00
  0.00000000E+00  0.00000000E+00  0.00000000E+00
  0.00000000E+00  0.00000000E+00  0.00000000E+00
  0.00000000E+00  0.00000000E+00  0.00000000E+00
  0.00000000E+00  0.00000000E+00  0.00000000E+00
  0.00000000E+00  0.00000000E+00  0.00000000E+00
  0.00000000E+00  0.00000000E+00  0.00000000E+00
  0.00000000E+00  0.00000000E+00  0.00000000E+00
  0.00000000E+00  0.00000000E+00  0.00000000E+00
  0.00000000E+00  0.00000000E+00  0.00000000E+00
  0.00000000E+00  0.00000000E+00  0.00000000E+00
  0.00000000E+00  0.00000000E+00  0.00000000E+00
  0.00000000E+00  0.00000000E+00  0.00000000E+00
  0.00000000E+00  0.00000000E+00  0.00000000E+00
  0.00000000E+00  0.00000000E+00  0.00000000E+00
  0.00000000E+00  0.00000000E+00  0.00000000E+00
  0.00000000E+00  0.00000000E+00  0.00000000E+00
  0.00000000E+00  0.00000000E+00  0.00000000E+00
  0.00000000E+00  0.00000000E+00  0.00000000E+00
  0.00000000E+00  0.00000000E+00  0.00000000E+00
  0.00000000E+00  0.00000000E+00  0.00000000E+00
