bcc_Al0_Cu0_Nb0_Ni9_Ta12_W0_Zr3         
   1.00000000000000     
     9.9255696105581954    0.0000000000000000    0.0000000000000000
     0.0000000000000000    6.1225351615865380    0.0000000000000000
     0.0000000000000000    0.0000000000000000    6.3671438046903521
   Ni   Ta   Zr
     9    12     3
Direct
  0.0000000000000000 -0.0005616295916924 -0.0298019644128097
  0.3333333333333357 -0.0005616295916924 -0.0298019644128097
  0.6666666666666643 -0.0005616295916924 -0.0298019644128097
  0.0000000000000000 -0.0005616295916924  0.5298019644128099
  0.3333333333333357 -0.0005616295916924  0.5298019644128099
  0.6666666666666643 -0.0005616295916924  0.5298019644128099
  0.1666666666666643  0.2473363277157425  0.2500000000000000
  0.5000000000000000  0.2473363277157425  0.2500000000000000
  0.8333333333333357  0.2473363277157425  0.2500000000000000
  0.1666666666666643  0.2379522399519696  0.7500000000000000
  0.5000000000000000  0.2379522399519696  0.7500000000000000
  0.8333333333333357  0.2379522399519696  0.7500000000000000
  0.0000000000000000  0.4810896003044124  0.0091646859319848
  0.3333333333333357  0.4810896003044125  0.0091646859319848
  0.6666666666666643  0.4810896003044125  0.0091646859319848
  0.0000000000000000  0.4810896003044125  0.4908353140680153
  0.3333333333333357  0.4810896003044124  0.4908353140680153
  0.6666666666666643  0.4810896003044125  0.4908353140680153
  0.1666666666666643  0.7468037849752514  0.7500000000000000
  0.5000000000000000  0.7468037849752512  0.7500000000000000
  0.8333333333333357  0.7468037849752512  0.7500000000000000
  0.1666666666666643  0.8068517059315964  0.2500000000000000
  0.5000000000000000  0.8068517059315964  0.2500000000000000
  0.8333333333333357  0.8068517059315964  0.2500000000000000
 
  0.00000000E+00  0.00000000E+00  0.00000000E+00
  0.00000000E+00  0.00000000E+00  0.00000000E+00
  0.00000000E+00  0.00000000E+00  0.00000000E+00
  0.00000000E+00  0.00000000E+00  0.00000000E+00
  0.00000000E+00  0.00000000E+00  0.00000000E+00
  0.00000000E+00  0.00000000E+00  0.00000000E+00
  0.00000000E+00  0.00000000E+00  0.00000000E+00
  0.00000000E+00  0.00000000E+00  0.00000000E+00
  0.00000000E+00  0.00000000E+00  0.00000000E+00
  0.00000000E+00  0.00000000E+00  0.00000000E+00
  0.00000000E+00  0.00000000E+00  0.00000000E+00
  0.00000000E+00  0.00000000E+00  0.00000000E+00
  0.00000000E+00  0.00000000E+00  0.00000000E+00
  0.00000000E+00  0.00000000E+00  0.00000000E+00
  0.00000000E+00  0.00000000E+00  0.00000000E+00
  0.00000000E+00  0.00000000E+00  0.00000000E+00
  0.00000000E+00  0.00000000E+00  0.00000000E+00
  0.00000000E+00  0.00000000E+00  0.00000000E+00
  0.00000000E+00  0.00000000E+00  0.00000000E+00
  0.00000000E+00  0.00000000E+00  0.00000000E+00
  0.00000000E+00  0.00000000E+00  0.00000000E+00
  0.00000000E+00  0.00000000E+00  0.00000000E+00
  0.00000000E+00  0.00000000E+00  0.00000000E+00
  0.00000000E+00  0.00000000E+00  0.00000000E+00
