Al2 Zr4 
1.0
4.9634893763471490e+00 0.0000000000000000e+00 0.0000000000000000e+00 
-2.4817533033117467e+00 4.2985073590921958e+00 0.0000000000000000e+00 
-3.4301012879659826e-16 -9.5910400438395605e-16 5.9410829963671441e+00 
Al Zr 
2 4 
Cartesian
  -0.0001422394    2.8656730056    1.4852707491
   2.4816102840    1.4328343535    4.4558122473
   2.4812546146    4.2985073591    5.9410829964
   2.4812546146    4.2985073591    2.9705414982
  -0.0001968378    2.8656730056    4.4558122473
   2.4815507221    1.4328343535    1.4852707491
