Converted from final.data
1.0
15.8010820251419162 0.0000000000000000 0.0000000000000000
0.1785856196698817 16.4821906019727926 0.0000000000000000
0.5332379697660145 -0.0169948524179305 32.1986073591819846
Al W Ni Zr Ta
12 24 7 11 7
Direct
0.2982825820619194 0.7010879195222023 0.0253343915548617
-0.0018844478316479 0.6372209586038989 0.0176224025338005
0.3708758800491617 0.4033478517322904 0.3378788032495094
0.3051908142255043 0.4375080449120242 0.2554858218834459
0.4682286500853765 0.1339392334348087 0.2368122085265582
0.8794314991989720 0.5310311001840979 0.2203038552916936
0.6118218226542343 0.7656255378915858 0.1514389835218015
0.7404747382790183 0.1113221669598771 0.0450534868026936
0.9842912531942632 0.2681009425424182 0.1254453329419319
0.7669689131059565 0.1214048513441062 0.2590014610325169
0.8074448417864082 0.7126419222300094 0.1704614149922870
0.7237716753564103 0.5701554429387105 0.1986241879792726
0.4106389771799334 0.3228072806372900 0.1001607267917616
0.3492786247325926 0.3521579930046297 0.9940746390563937
0.0896963417364895 0.1707559603877256 0.8279792297751211
0.6372555624622939 0.4728489636647659 0.1503850173900755
0.4190661449592673 0.0087049072480408 0.3367743016505847
0.1171994106307050 0.9649741951295167 0.5073054476171417
0.2165669218756442 0.8746928104225066 0.2330450752104225
0.3781030766998177 0.3901771171726248 0.1852857025735704
0.2235881232593170 0.2896493203977507 0.2453014994952186
0.1178051992291055 0.4546844280840165 0.2570969648824617
0.2146188613425130 0.4552634340893660 0.1888148072373564
0.2153779631261961 0.1634040969502900 0.1877209944386863
0.9629908324898213 0.4582616439537462 0.9345923182842589
0.1118849226277956 0.5935020667286870 0.4373310410810536
0.5871934291986877 0.1635835307301924 0.1828121635185707
0.3463601085551096 0.2772471024834978 0.9104691386431157
0.3170151336204541 0.1570572493241098 0.1181858636155181
0.3281978612440923 0.2679811665498079 0.3846352352737005
0.4287518388966901 0.2682093617409302 0.4385493970992387
0.2046765397658059 0.2122195197757476 0.3314520585050986
0.6142660084160555 0.2115270074777719 0.2743834150193706
0.0717352492447858 0.3187974606559468 0.2921911637355125
0.3600751470672081 0.4357219264450344 0.0447836650600464
0.2477019365659631 0.3072308342685522 0.1536154592167641
0.2917706500941671 -0.0135847233466229 0.3857663801998316
0.5153403001533624 0.5140570230835737 0.5380139654989449
0.3327098659492588 0.1172873903181074 0.3682455366630629
0.8023004826731740 0.8441132560369141 0.2025008057673344
0.0625334358215246 0.0731419939387479 0.4687062022016776
0.3355892782024750 0.2795530219848492 0.3001183855894630
0.7841086871667751 0.3742820953400060 0.0382195383549091
0.0805605030741125 0.4552787058840465 -0.0058805821230883
0.1313680771789728 0.4077710794304523 0.1068601201327022
0.2955021497160272 0.5061475578000542 0.9838499461290169
0.1329065886193858 0.6693402850320893 0.8812146036764367
0.3787276103056257 0.0972273590319118 0.4525730719164814
0.9758402621062383 0.6564652407258869 0.1770100516547439
0.0712620523474061 0.3201049834507947 0.1999945895693872
0.7848998323835420 0.3359110630945885 0.1193604223402007
0.4763852264781804 0.3027933795173824 0.2601054874902458
0.4695083680962139 0.1889016632611073 0.3378233577521430
0.3166074796912897 0.1241395262144670 0.2787723528325209
0.0916741574562341 0.2688613631872787 0.0393385068364217
0.4063963675420013 0.2228046576596379 0.1752079698774887
0.2659981131942279 0.2768153618089040 0.0577248263338073
0.2819972360659083 0.9077193862153622 0.4661424506984024
0.1774672880351208 0.1606960125761883 0.4039151077568861
0.2129030328279299 0.3767558345031005 0.3307449424842603
0.8842877072313203 0.5416426028178659 0.3262375432185136
