Cu32 Zr12 
1.0
7.8962410986853948e+00 0.0000000000000000e+00 0.0000000000000000e+00 
0.0000000000000000e+00 8.1598226120565229e+00 0.0000000000000000e+00 
0.0000000000000000e+00 0.0000000000000000e+00 1.0066010660257309e+01 
Cu Zr 
32 12 
Cartesian
   6.1739208865    2.0399556530    2.2746667590
   2.2258003371    2.0399556530    2.7583385712
   5.5189118949    4.0808986446    0.9544842958
   1.5707913455    8.1588352735    4.0785160013
   5.5189118949    8.1588352735    0.9544842958
   1.5707913455    4.0808986446    4.0785260673
   6.9491106676    4.7024160133    3.4279497323
   3.0009901183    7.5373179048    1.6050555978
   6.9491106676    7.5373179048    3.4279497323
   3.0009901183    4.7024160133    1.6050555978
   3.0380234890    6.1198669590    4.0619272157
   6.9861440384    6.1198669590    0.9710801276
   1.0530821941    6.1198669590    2.6651977745
   5.0012027435    6.1198669590    2.3678075556
   1.4033357605    6.1198669590    0.1553608217
   5.3514642061    6.1198669590    4.8776465216
   0.9471304311    0.6225030753    6.6380609279
   4.8952509804    3.4574065988    8.4609550624
   0.9471304311    3.4574065988    6.6380609279
   4.8952509804    0.6225030753    8.4609550624
   4.8582176097    2.0399556530    6.0040834445
   0.9100970603    2.0399556530    9.0949325459
   6.8431589046    2.0399556530    7.4008128857
   2.8950383552    2.0399556530    7.6982031047
   6.4928974419    2.0399556530    9.9106518517
   2.5447768926    2.0399556530    5.1883641387
   2.3773292038    0.0009903332    9.1115213314
   6.3254497532    4.0789239675    5.9874845930
   2.3773292038    4.0789239675    9.1115313974
   6.3254497532    0.0009901455    5.9874845930
   1.7223202122    6.1198669590    7.7913439013
   5.6704407615    6.1198669590    7.3076720891
   4.4444782648    3.6519530895    3.6249012969
   0.4963553466    0.4279582165    1.4081040332
   4.4444782648    0.4279582165    3.6249012969
   0.4963553466    3.6519530895    1.4081040332
   7.5836526023    2.0399556530    4.5320401116
   3.6355320530    2.0399556530    0.5009692449
   3.4517628339    7.7318643955    6.4411093634
   7.3998833832    4.5078695226    8.6579066270
   3.4517628339    4.5078695226    6.4411093634
   7.3998833832    7.7318643955    8.6579066270
   0.3125853379    6.1198669590    5.5339705487
   4.2607090457    6.1198669590    9.5650454417
