Cu4 Zr4 Nb8 Ta8 W8 
1.0
9.1613628492399588e+00 0.0000000000000000e+00 0.0000000000000000e+00 
0.0000000000000000e+00 6.5719240556635832e+00 0.0000000000000000e+00 
0.0000000000000000e+00 0.0000000000000000e+00 9.1905043532834778e+00 
Cu Zr Nb Ta W 
4 4 8 8 8 
Cartesian
   4.5836130607    3.3032921916    4.6150393325
   6.8680905008    4.9116128780    4.6150393325
   4.5836130607    4.9116128780    6.8730911091
   6.8680905008    3.3032921916    6.8730911091
   4.5736088525    4.9728566383    2.3261809853
   6.8780947090    3.2420550032    2.3261717948
   4.5736088525    3.2420550032    9.1619494563
   6.8780947090    4.9728500664    9.1619586468
   2.2798051450    4.9474890114    4.5758602125
   0.0105374912    3.2674160581    4.5758602125
   2.3239812367    1.6449788788    4.6014741481
   2.3239812367    6.5699327627    6.8866562935
   2.2798051450    3.2674160581    6.9122702291
   0.0105369415    4.9474890114    6.9122702291
   9.1277223249    1.6449788788    6.8866562935
   9.1277223249    6.5699327627    4.6014741481
   2.2702223595    3.2165362221    2.2635017457
   2.2702223595    4.9983688475    0.0341260889
   0.0201164289    3.2165362221    0.0341270079
   0.0201160625    4.9983688475    2.2635017457
   4.6120316083    1.6408714263    6.8688175246
   4.6120316083    0.0021110992    4.6193129170
   6.8396719533    1.6408714263    4.6193129170
   6.8396719533    0.0021110926    6.8688175246
   2.2761955681    0.0583256946    2.3030392954
   4.5689548802    1.5332824576    2.2928470261
   0.0141449610    1.5846551879    2.3030392954
   4.5689457188    0.1096998707    0.0047788141
   6.8827578427    0.1096998707    2.2928470261
   6.8827578427    1.5332824576    0.0047791358
   2.2761955681    1.5846551879    9.1850911462
   0.0141438616    0.0583256288    9.1851003367
