Converted from final.data
1.0
16.0155697391743956 0.0000000000000000 0.0000000000000000
-0.4546727022849937 33.9181321499526547 0.0000000000000000
0.3385940589747211 0.2938100206021224 15.6983744789679616
Al Zr Nb W Ta Cu
2 14 14 3 6 22
Direct
-0.0026206602930606 0.4265502807431825 0.2386371088826144
0.8979303486971963 0.3511306242543650 0.9570239593501099
0.2538799943955424 0.1738774322273210 0.9950694666936676
0.7389065744795804 0.0463661373289360 0.9297787676664325
0.5194651713052978 0.2219164328831011 0.2923106138671100
0.1141113088800749 0.5519090060268190 0.4059809350009992
0.6256899892238847 0.4428891435644638 0.1126868732154721
0.4895852441945489 0.1906710588723226 0.9490426984858590
0.3163577453011388 0.4769477295718155 0.0700242386981742
0.2032545184165383 0.4034738255730133 0.0078604971354132
0.8795083944771600 0.5341134282149408 0.1867031947796663
0.3699445342679683 0.2504435184160838 0.5510144614422007
0.3642071337345732 0.4162644713329552 0.5212371253437239
0.1539151793086367 0.2069567336420534 0.4808770957067299
0.1340406693694250 0.2734878695100113 0.1134768280506703
0.7180884557088973 0.3571878761898007 0.3515076212246158
0.1662509707729374 0.3154684703448357 0.3085047606464890
0.1082962874841141 0.4677334430727896 0.3230461026333913
0.1213464239103396 0.1717063808938444 0.6800581651155609
0.2306437505198406 0.0739060705165294 0.2254973051636001
0.6069649592132319 0.9093992616273660 0.5706599935045269
0.0552524817696644 0.9290449088298008 0.5929479547376952
0.1213215141173223 0.0528061506762844 0.7417911946300474
0.3113296414126764 0.0734184368502349 0.3847312491430912
0.0122624677495252 0.0895400027780656 0.8706838897473155
0.4953104597765399 0.8444065906792411 0.5862762843722041
0.6974684311226677 0.2347187241904835 0.9821164740146944
0.0737980109305937 0.3817847469237982 0.3536176845638434
0.8248180584505213 0.6840065958526022 0.0240267034061499
0.5096450890339400 0.5504690551488011 0.6839345211997231
0.1633236179672630 0.3147947377736673 0.7236763583704575
0.1466820993152692 0.3238091783107943 0.9930681747438799
0.0255810808432361 0.3279953242744916 0.8638081861017408
0.2215441883501186 -0.0054906355427946 0.3702818371519972
0.0975688947997312 0.3710888272100175 0.1471253680402411
0.0379276332286304 0.3837960991066761 -0.0071052563535410
0.5805729451992568 0.3816548733225346 0.0206898070551528
0.4780311928132094 0.2319717322059232 0.0941693620935843
0.2007302974072953 0.2443111872411856 0.6410841440340930
0.6339855030094012 0.3591138354081640 0.8562297515420657
0.3750273850975941 0.4082509371142514 0.1455910013440032
0.3673860202868705 0.4595815886635979 0.9243460772276230
0.4279968835234028 0.4605591417173695 0.3752540567801576
0.2458362808128683 0.2692834140766586 0.9430261151325908
0.2514783881565072 0.3379534226216315 0.1604232585111088
0.3511706739786119 0.3582058488767704 0.2715127144714398
0.8785816355514721 0.4265203855514978 0.0085769634398409
-0.0128767315694503 0.2976394873800742 0.0281944776186912
0.3245906930579520 0.3269159273910950 0.4071997022727501
0.8717875082506868 0.1178680667488820 0.2894446940473050
0.9978198460936426 0.2287727244587600 0.2602571107645400
0.8894459823281987 0.1014244814724467 0.9600183704117051
0.2997684735213372 0.2322756060346469 0.0361004527270509
0.1698420517093451 0.1326648918956579 0.1541601970626941
0.1120641367530256 0.2407329492729334 0.3149747756660886
0.1513312722005879 0.0656444060324452 0.3889148928315623
0.3713603370999248 0.0163054098843727 0.2696428156077869
0.5450897437255574 0.2838395796745797 0.5672294622916894
0.2001078543183690 0.2134966597359843 0.1731386450326788
0.7580663564507674 0.1820782499266662 0.7774923154714448
0.3127778687052518 0.1157529168222101 0.0939498299367333
