fcc_Al0_Cu0_Nb0_Ni28_Ta0_W0_Zr4         
   1.00000000000000     
     7.3011388603326788   -0.0000000000000000    0.0000000000000000
     0.0000000000000000    7.3011388603326788    0.0000000000000000
     0.0000000000000000   -0.0000000000000000    7.3011388603326788
   Ni   Zr
    28     4
Direct
  0.0097417783314043  0.4916129846157319  0.4916129846157319
  0.2402582216685957  0.7583870153842682  0.4916129846157319
  0.0097417783314043  0.7583870153842682  0.7583870153842682
  0.2402582216685957  0.4916129846157319  0.7583870153842682
  0.4989297553726416  0.0094774611508595  0.0094774611508595
  0.7510702446273583  0.2405225388491405  0.0094774611508595
  0.4989297553726416  0.2405225388491405  0.2405225388491405
  0.7510702446273583  0.0094774611508595  0.2405225388491405
  0.4916129846157319  0.4916129846157319  0.0097417783314043
  0.7583870153842682  0.7583870153842682  0.0097417783314043
  0.4916129846157319  0.7583870153842682  0.2402582216685957
  0.7583870153842682  0.4916129846157319  0.2402582216685957
  0.0030696188079521  0.0030696188079521  0.0030696188079521
  0.2469303811920479  0.2469303811920479  0.0030696188079521
  0.0030696188079521  0.2469303811920479  0.2469303811920479
  0.2469303811920479  0.0030696188079521  0.2469303811920479
  0.4916129846157319  0.0097417783314043  0.4916129846157319
  0.7583870153842682  0.2402582216685957  0.4916129846157319
  0.4916129846157319  0.2402582216685957  0.7583870153842682
  0.7583870153842682  0.0097417783314043  0.7583870153842682
  0.0094774611508595  0.0094774611508595  0.4989297553726416
  0.2405225388491405  0.2405225388491405  0.4989297553726416
  0.0094774611508595  0.2405225388491405  0.7510702446273583
  0.2405225388491405  0.0094774611508595  0.7510702446273583
  0.0094774611508595  0.4989297553726416  0.0094774611508595
  0.2405225388491405  0.7510702446273583  0.0094774611508595
  0.0094774611508595  0.7510702446273583  0.2405225388491405
  0.2405225388491405  0.4989297553726416  0.2405225388491405
  0.4773402395483832  0.4773402395483832  0.4773402395483832
  0.7726597604516169  0.7726597604516169  0.4773402395483832
  0.4773402395483832  0.7726597604516169  0.7726597604516169
  0.7726597604516169  0.4773402395483832  0.7726597604516169
 
  0.00000000E+00  0.00000000E+00  0.00000000E+00
  0.00000000E+00  0.00000000E+00  0.00000000E+00
  0.00000000E+00  0.00000000E+00  0.00000000E+00
  0.00000000E+00  0.00000000E+00  0.00000000E+00
  0.00000000E+00  0.00000000E+00  0.00000000E+00
  0.00000000E+00  0.00000000E+00  0.00000000E+00
  0.00000000E+00  0.00000000E+00  0.00000000E+00
  0.00000000E+00  0.00000000E+00  0.00000000E+00
  0.00000000E+00  0.00000000E+00  0.00000000E+00
  0.00000000E+00  0.00000000E+00  0.00000000E+00
  0.00000000E+00  0.00000000E+00  0.00000000E+00
  0.00000000E+00  0.00000000E+00  0.00000000E+00
  0.00000000E+00  0.00000000E+00  0.00000000E+00
  0.00000000E+00  0.00000000E+00  0.00000000E+00
  0.00000000E+00  0.00000000E+00  0.00000000E+00
  0.00000000E+00  0.00000000E+00  0.00000000E+00
  0.00000000E+00  0.00000000E+00  0.00000000E+00
  0.00000000E+00  0.00000000E+00  0.00000000E+00
  0.00000000E+00  0.00000000E+00  0.00000000E+00
  0.00000000E+00  0.00000000E+00  0.00000000E+00
  0.00000000E+00  0.00000000E+00  0.00000000E+00
  0.00000000E+00  0.00000000E+00  0.00000000E+00
  0.00000000E+00  0.00000000E+00  0.00000000E+00
  0.00000000E+00  0.00000000E+00  0.00000000E+00
  0.00000000E+00  0.00000000E+00  0.00000000E+00
  0.00000000E+00  0.00000000E+00  0.00000000E+00
  0.00000000E+00  0.00000000E+00  0.00000000E+00
  0.00000000E+00  0.00000000E+00  0.00000000E+00
  0.00000000E+00  0.00000000E+00  0.00000000E+00
  0.00000000E+00  0.00000000E+00  0.00000000E+00
  0.00000000E+00  0.00000000E+00  0.00000000E+00
  0.00000000E+00  0.00000000E+00  0.00000000E+00
