Zr1 Cu1                                 
   1.00000000000000     
     3.2723381592850140    0.0000000000000000    0.0000000000000000
     0.0000000000000000    3.2723381592850140    0.0000000000000000
    -0.0000000000000000   -0.0000000000000000    3.2723381592850140
   Zr   Cu
     1     1
Direct
  0.5000000000000000  0.5000000000000000  0.5000000000000000
  0.0000000000000000  0.0000000000000000  0.0000000000000000
 
  0.00000000E+00  0.00000000E+00  0.00000000E+00
  0.00000000E+00  0.00000000E+00  0.00000000E+00
