Al10 W2 
1.0
4.9381631122505496e+00 0.0000000000000000e+00 0.0000000000000000e+00 
-2.4690818000376722e+00 4.2765746887497089e+00 0.0000000000000000e+00 
0.0000000000000000e+00 0.0000000000000000e+00 9.0193068907415501e+00 
Al W 
10 2 
Cartesian
   0.0000927798    0.0000006867    9.0193068907
   2.4689874871    4.2765746887    4.5096534454
  -0.0000470752    2.8510512180    0.0000000000
   2.4691283874    1.4255234707    4.5096534454
   0.8483318954    1.4693540847    2.2548267227
  -0.8483252531    1.4693455316    6.7644801681
   1.6964689953    0.0000041133    6.7644801681
   0.7726124112    4.2765704122    2.2548267227
   3.3174084371    2.8072291572    2.2548267227
   1.6207494168    2.8072206040    6.7644801681
   0.0000171210    2.8510512180    4.5096534454
   2.4690641913    1.4255234707    9.0193068907
