Al12 W3 
1.0
5.2670792806948770e+00 0.0000000000000000e+00 0.0000000000000000e+00 
1.0288370815271553e+00 5.2097344030887491e+00 0.0000000000000000e+00 
5.1430515305225799e-01 2.6050559877475479e+00 8.8433788080944904e+00 
Al W 
12 3 
Cartesian
   3.9900947563    1.7415890004    1.3814861073
   1.3837670973    0.9822880096    2.1176089592
   5.0603334026    4.2397419715    2.2058481930
   3.3748427137    1.6947322003    4.1669381907
   0.8217087355    2.5143093191    4.4080086970
   4.1396274447    7.0315146377    8.8433699647
   1.8139974029    5.1461508301    8.8433611213
   4.5043065983    4.3465208849    7.4619722912
   1.8979960084    3.5872593151    6.7257433187
   5.5746924034    6.8446100046    6.6375483019
   3.8892694938    4.2996050694    4.6764671475
   1.3361537636    5.1191823134    4.4353170508
   1.0654483924    5.1926695204    0.0000074929
   2.3998558223    3.5266968899    2.3675316877
   2.9142138481    6.1316387702    6.4758382770
