Zr3 Ta1 
1.0
4.4595264209432184e+00 0.0000000000000000e+00 0.0000000000000000e+00 
-5.8433159235924456e-17 4.4595264209432184e+00 0.0000000000000000e+00 
-3.5654131059208153e-17 -1.3865495411914277e-17 4.4595264209432184e+00 
Zr Ta 
3 1 
Cartesian
   4.4595264209    2.2297632105    2.2297632105
   2.2297632105    4.4595264209    2.2297632105
   2.2297632105    2.2297632105    4.4595264209
   0.0000000000    0.0000000000    4.4595264209
