Zr1 Al3                                 
   1.00000000000000     
     4.1043282216398538   -0.0000000000000000    0.0000000000000000
    -0.0000000000000000    4.1043282216398538    0.0000000000000000
    -0.0000000000000000   -0.0000000000000000    4.1043282216398538
   Zr   Al
     1     3
Direct
  0.0000000000000000  0.0000000000000000  0.0000000000000000
  0.0000000000000000  0.5000000000000000  0.5000000000000000
  0.5000000000000000  0.0000000000000000  0.5000000000000000
  0.5000000000000000  0.5000000000000000  0.0000000000000000
 
  0.00000000E+00  0.00000000E+00  0.00000000E+00
  0.00000000E+00  0.00000000E+00  0.00000000E+00
  0.00000000E+00  0.00000000E+00  0.00000000E+00
  0.00000000E+00  0.00000000E+00  0.00000000E+00
