Al5 Cu5 
1.0
4.1381427946316398e+00 0.0000000000000000e+00 0.0000000000000000e+00 
2.0689844258203509e+00 5.9975130667201020e+00 0.0000000000000000e+00 
2.0690789556480333e+00 2.1292515252346287e+00 5.6782802319302670e+00 
Al Cu 
5 5 
Cartesian
   2.0691129042    3.5214584277    0.8378870310
   2.0691153848    0.5237669137    1.3603853431
   4.1381030881    4.0633822960    2.8391401160
   6.2070932719    4.6053061643    4.8403932009
   6.2070959226    7.6030005571    4.3178948888
   2.0690813565    2.1292528248    5.6782802319
   2.0690656251    2.5835819619    3.1538304064
   4.1381968242    2.0043179758    1.5774148919
   4.1380155590    6.1224526137    4.1008653401
   6.2071446891    5.5431826301    2.5244498255
