Ni1                                     
   1.00000000000000     
     1.3957159063861249    1.3957159063861249    1.3957159063861249
     1.3957159063861249   -1.3957159063861249   -1.3957159063861249
    -1.3957159063861249    1.3957159063861249   -1.3957159063861249
   Ni
     1
Direct
  0.0000000000000000  0.0000000000000000 -0.0000000000000000
 
  0.00000000E+00  0.00000000E+00  0.00000000E+00
