Ni16 Nb8 
1.0
4.8083759627229119e+00 0.0000000000000000e+00 0.0000000000000000e+00 
-2.4041544491668536e+00 4.1641414972198207e+00 0.0000000000000000e+00 
-3.7941044508860385e-06 1.6773124233055987e-08 1.5615646171803290e+01 
Ni Nb 
16 8 
Cartesian
   0.0000242866    2.7760957216    1.9442884892
   1.2021155651    2.0820624203    0.0000012835
   2.4045293245    0.0000000893    0.0000000822
  -1.2180595798    3.4793484322    3.9039115430
   0.0000100802    1.3695861426    3.9039115430
   1.2181089101    3.4793484322    3.9039115430
   0.0000089092    2.7760957258    5.8635345967
   2.4041895767    1.3880457882    9.7521115751
   1.2021160723    2.0820665929    7.8078387015
   2.4028155977    0.0000001806    7.8078230859
  -1.2020737128    2.0820749211    7.8078074703
  -1.2020774602    2.0820790937   15.6156461718
   2.4041982412    1.3880457924   13.6713576826
   3.6222724909    0.6847930818   11.7117346289
   2.4042076392    2.7945553714   11.7117346289
   1.1861040010    0.6847930818   11.7117346289
  -2.4040984027    4.1641414988    1.5020939903
   2.4042009700    1.3880457803    2.4402882586
  -2.4038749620    4.1641415040    6.3057228493
   0.0001781651    0.0000001615    9.3099233225
   0.0000222690    2.7760957305   10.2481113445
   2.4042050672    1.3880457835    5.3675348273
   0.0001813532    0.0000001712   14.1135459352
   0.0000263662    2.7760957337   13.1753579132
