Al8 Zr4 
1.0
5.3484714756983989e+00 0.0000000000000000e+00 0.0000000000000000e+00 
-2.6742509324793389e+00 4.6319119232438544e+00 0.0000000000000000e+00 
2.9344014713192764e-08 3.0907650379562857e-08 8.7190126944459330e+00 
Al Zr 
8 4 
Cartesian
   3.9635811182    0.7995652758    2.1797182976
   1.3848450129    0.7995421163    2.1797967687
   2.6738408017    4.6319119232    0.0000004263
   2.6742231221    3.0328045543    2.1797531736
  -0.0000025495    1.5991073998    6.5392595208
   1.2893300978    3.8323466783    6.5393031159
  -1.2894006593    3.8323698379    6.5392246448
   5.3483056296    0.0000001161    4.3595063472
  -0.0000502305    3.0879428396    3.7886028340
  -0.0000128021    3.0879428282    0.5709017694
   2.6742280262    1.5439691260    8.1481091812
   2.6741905760    1.5439691146    4.9304098604
