Al1 Ni3
1.0
   3.4315489299999999   -0.0001170200000000    1.9810777800000001
   1.1437401800000000    3.2353328100000001    1.9810777300000000
  -0.0001288700000000   -0.0000919400000000    3.9623788499999999
Al Ni
1 3
direct
   0.0000000200000000   -0.0000000000000000   -0.0000000000000000 Al
   0.7500000999999999    0.7499989600000000    0.7500013000000000 Ni
   0.4999999800000000    0.5000000000000000    0.5000000000000000 Ni
   0.2499999100000000    0.2500010400000000    0.2499987000000000 Ni
