Nb4 Al4 Cu4
1.0
  -2.4413095899999999   -4.3343375100000001    0.0000120300000000
  -2.5334353900000002    4.3875193699999997   -0.0000171700000000
  -0.0000081400000000    0.0000268200000000   -8.0789288900000003
Nb Al Cu
4 4 4
direct
   0.6720200900000000    0.3359907600000000    0.5621116300000000 Nb
   0.3242990500000000    0.6621604500000000    0.4327212200000000 Nb
   0.3242868700000000    0.6621493500000000    0.0672746000000000 Nb
   0.6720168600000000    0.3359837500000000    0.9378962500000000 Nb
   0.9882171000000000    0.9939491100000000    0.4869074200000000 Al
   0.9881913900000000    0.9939356200000000    0.0131049300000000 Al
   0.1874211300000000    0.3516397600000000    0.7500017000000000 Al
   0.1872848400000000    0.8358000800000001    0.7500053600000001 Al
   0.6769950400000000    0.8390215100000000    0.7499928100000001 Cu
   0.8201860900000000    0.6498840500000000    0.2500007700000000 Cu
   0.8200186500000001    0.1697164500000000    0.2499995800000000 Cu
   0.3390628800000000    0.1697671200000000    0.2499837300000000 Cu
