Cu1 
1.0
2.5654568798265829e+00 0.0000000000000000e+00 0.0000000000000000e+00 
1.2827284399391161e+00 2.2217508295184292e+00 0.0000000000000000e+00 
1.2827284392468039e+00 7.4058360930196598e-01 2.0946867705546968e+00 
Cu 
1 
Cartesian
   0.0000000000    0.0000000000    0.0000000000
