Zr1 
1.0
3.1939894381537441e+00 0.0000000000000000e+00 0.0000000000000000e+00 
1.5969947328109086e+00 2.7660760283978112e+00 0.0000000000000000e+00 
1.5969944034642474e+00 9.2202495755271396e-01 2.6078820219434116e+00 
Zr 
1 
Cartesian
   6.3877262493    3.6878686356    2.6078820219
