Ta30 
1.0
1.0250048517413008e+01 0.0000000000000000e+00 0.0000000000000000e+00 
-2.2666725887165351e-05 1.0250051000472521e+01 0.0000000000000000e+00 
3.1915158595918797e-07 -4.0086086398676211e-07 5.3627088517634087e+00 
Ta 
30 
Cartesian
   1.3086645637    4.7664170155    2.6813544259
   1.8604105214    1.8604149070    1.3341454336
   4.0574421425    4.0574517380    2.6813544259
   4.4404898245    2.4618469992    0.0000000266
   1.8604106817    1.8604147056    4.0285634182
   4.7664235769    1.3086853111    2.6813544259
   2.4618369024    4.4404856934    5.3627088518
   9.8914318806    3.8163502388    0.0000001604
   9.1824731725    1.0675731610    5.3627088518
   7.5868693074    0.6845340806    2.6813544259
   9.5655137976    2.6631783006    2.6813544259
   6.9854316757    3.2646103928    1.3472089923
   6.9854318345    3.2646101933    4.0154998594
   6.4337086602    0.3586052093    0.0000000725
   2.6631568624    9.5655216441    2.6813544259
   3.2645944942    6.9854402068    4.0155052221
   0.3585888451    6.4337007617    0.0000000957
   3.2645943354    6.9854404063    1.3472089923
   3.8163274405    9.8914529662    0.0000000687
   0.6845174973    7.5868722990    2.6813544259
   1.0675533165    9.1824770378    5.3627088518
   5.1250132445    5.1250250994    5.3627088518
  10.2500260103   10.2500508000    2.6813544259
   8.9413616062    5.4836233341    2.6813544259
   8.3896156485    8.3896356926    4.0285580555
   5.4836025929    8.9413755386    2.6813544259
   5.8095462762    7.7882040012    0.0000000525
   6.1925840273    6.1925988617    2.6813544259
   8.3896154881    8.3896358940    1.3341507963
   7.7881895866    5.8095645054    5.3627088518
