POSCAR file written by OVITO Basic 3.9.4
1
7.3393508 0.0 0.0
0.1196558911 7.3165465999 0.0
-0.200973596 -0.0497482529 17.0967
Al W Ni Zr 
21 9 16 18 
Cartesian
7.2965065236 3.7555174896 7.2010870062
0.0405351236 3.7611274896 3.7301170062
1.6132565236 5.6574274896 0.0952253062
5.7574365236 5.5236474896 3.8156370062
1.4340765236 0.1934614896 5.3570270062
1.9582465236 3.6094974896 2.0728870062
1.7802165236 3.7890474896 5.3498770062
3.5548965236 2.0401574896 5.4009470062
3.7228865236 5.4692274896 5.3038970062
0.0010118202 0.3261941132 14.9807046062
1.3667250593 3.5988925797 12.8768646062
2.9507071854 0.3688924881 14.9745246062
3.1149366556 2.5068074846 14.7441546062
1.9854429181 7.0115563689 11.5553346062
0.0434990954 0.5000055825 10.0458546062
1.1810198076 1.7475471412 13.8979846062
5.6587301367 6.282341268 10.4486046062
5.2150981804 3.7704865964 14.4574646062
6.7612754234 2.9884828835 14.0859446062
7.076744183 5.1907629601 14.1664546062
2.9050390447 0.9991847916 12.9909346062
3.6042165236 0.1721054896 7.3247170062
3.5951265236 0.0874676896 3.6754270062
3.7288365236 3.6831674896 0.0514240062
5.4622865236 1.9639874896 7.2787970062
5.4669065236 1.9184274896 3.6657570062
5.5832165236 5.6418774896 7.2983370062
5.6301165236 7.3394874896 1.8453270062
7.2961665236 1.8054974896 1.8756870062
3.6980265236 5.5222974896 1.8906770062
-0.0028842764 0.1996644896 7.2505970062
0.1120145236 7.3405874896 3.6529870062
3.6427265236 3.7423874896 3.7178670062
1.8203765236 1.8365074896 0.0053548862
1.8316765236 1.9330174896 3.6335970062
1.8280465236 5.6231674896 3.6086770062
1.7471265236 0.1169064896 1.8201070062
5.5429265236 0.1629044896 5.4705970062
5.5373265236 3.6483474896 1.8892770062
5.5382465236 3.7741374896 5.4486870062
0.0033384936 1.9957974896 5.5218370062
0.0820809236 5.5465574896 1.8386570062
7.3364665236 5.5349174896 5.4680270062
3.6241965236 1.8500174896 1.8422370062
1.2562937061 3.5363819272 15.3032446062
0.8942450234 1.5324004511 11.5586046062
6.8299900215 6.9651905093 12.6034346062
7.007012103 3.6432209478 9.4317356062
4.0514051993 5.8538268145 12.4071546062
3.8473951531 3.4911537532 12.5037646062
1.7615080093 1.924901984 9.5090336062
1.3571627058 5.9301551758 8.8247170062
2.0027302307 5.9268248598 13.4017446062
5.2020684859 0.782024398 9.0950196062
5.9608036986 2.0506886413 11.4606646062
5.1784194422 6.018915338 14.8854546062
6.0864380085 4.1401206487 11.9937046062
2.3962882512 3.9158828164 10.5176946062
5.4212814887 1.2581871931 13.6888346062
4.5660633144 3.8974833374 9.6729526062
0.6852611705 5.4403711813 10.8875946062
3.7960864092 1.0713378468 10.8639046062
3.5010759493 6.2906980859 10.0044046062
3.1529786218 5.0778631779 14.9258446062
