fcc_Al4_Cu0_Nb4_Ni4_Ta16_W4_Zr0         
   1.00000000000000     
     9.0488819725607570    0.0000000000000000    0.0000000000000000
     0.0000000000000000    6.6266434863519263    0.0000000000000000
     0.0000000000000000    0.0000000000000000    8.9465433337772957
   Al   Nb   Ni   Ta   W 
     4     4     4    16     4
Direct
  0.5171702147800035 -0.0373743785961610  0.0183804900890849
  0.7328297852199965  0.2873743785961609  0.0183804900890849
  0.5171702147800035  0.2873743785961609  0.2316195099109151
  0.7328297852199965 -0.0373743785961610  0.2316195099109151
 -0.0046192145313437  0.5010827359880441  0.0035448569331990
  0.2546192145313437  0.7489172640119559  0.0035448569331990
 -0.0046192145313437  0.7489172640119559  0.2464551430668010
  0.2546192145313437  0.5010827359880441  0.2464551430668010
  0.4978629711083870  0.5203282121143762 -0.0051431716511119
  0.7521370288916133  0.7296717878856237 -0.0051431716511119
  0.4978629711083870  0.7296717878856237  0.2551431716511119
  0.7521370288916133  0.5203282121143762  0.2551431716511119
  0.5023497386240510  0.4982116167743850  0.4982391423366041
  0.7476502613759490  0.7517883832256148  0.4982391423366041
  0.5023497386240510  0.7517883832256148  0.7517608576633953
  0.7476502613759490  0.4982116167743850  0.7517608576633953
 -0.0121055824625051  0.0017636530125804  0.0041392509237760
  0.2621055824625049  0.2482363469874197  0.0041392509237760
 -0.0121055824625051  0.2482363469874197  0.2458607490762240
  0.2621055824625049  0.0017636530125804  0.2458607490762240
 -0.0007681733104976  0.4965840768700138  0.4988525905802140
  0.2507681733104975  0.7534159231299860  0.4988525905802140
 -0.0007681733104976  0.7534159231299860  0.7511474094197861
  0.2507681733104975  0.4965840768700138  0.7511474094197861
  0.5027936422993159  0.0031327777155833  0.4879113282785019
  0.7472063577006841  0.2468672222844167  0.4879113282785019
  0.5027936422993159  0.2468672222844167  0.7620886717214979
  0.7472063577006841  0.0031327777155833  0.7620886717214979
 -0.0005855486935329  0.0013155285725520  0.4976977036153764
  0.2505855486935331  0.2486844714274481  0.4976977036153764
 -0.0005855486935329  0.2486844714274481  0.7523022963846242
  0.2505855486935331  0.0013155285725520  0.7523022963846242
 
  0.00000000E+00  0.00000000E+00  0.00000000E+00
  0.00000000E+00  0.00000000E+00  0.00000000E+00
  0.00000000E+00  0.00000000E+00  0.00000000E+00
  0.00000000E+00  0.00000000E+00  0.00000000E+00
  0.00000000E+00  0.00000000E+00  0.00000000E+00
  0.00000000E+00  0.00000000E+00  0.00000000E+00
  0.00000000E+00  0.00000000E+00  0.00000000E+00
  0.00000000E+00  0.00000000E+00  0.00000000E+00
  0.00000000E+00  0.00000000E+00  0.00000000E+00
  0.00000000E+00  0.00000000E+00  0.00000000E+00
  0.00000000E+00  0.00000000E+00  0.00000000E+00
  0.00000000E+00  0.00000000E+00  0.00000000E+00
  0.00000000E+00  0.00000000E+00  0.00000000E+00
  0.00000000E+00  0.00000000E+00  0.00000000E+00
  0.00000000E+00  0.00000000E+00  0.00000000E+00
  0.00000000E+00  0.00000000E+00  0.00000000E+00
  0.00000000E+00  0.00000000E+00  0.00000000E+00
  0.00000000E+00  0.00000000E+00  0.00000000E+00
  0.00000000E+00  0.00000000E+00  0.00000000E+00
  0.00000000E+00  0.00000000E+00  0.00000000E+00
  0.00000000E+00  0.00000000E+00  0.00000000E+00
  0.00000000E+00  0.00000000E+00  0.00000000E+00
  0.00000000E+00  0.00000000E+00  0.00000000E+00
  0.00000000E+00  0.00000000E+00  0.00000000E+00
  0.00000000E+00  0.00000000E+00  0.00000000E+00
  0.00000000E+00  0.00000000E+00  0.00000000E+00
  0.00000000E+00  0.00000000E+00  0.00000000E+00
  0.00000000E+00  0.00000000E+00  0.00000000E+00
  0.00000000E+00  0.00000000E+00  0.00000000E+00
  0.00000000E+00  0.00000000E+00  0.00000000E+00
  0.00000000E+00  0.00000000E+00  0.00000000E+00
  0.00000000E+00  0.00000000E+00  0.00000000E+00
