Converted from final.data
1.0
15.4845799934195192 0.0000000000000000 0.0000000000000000
-0.9390566331696873 32.7586681560046884 0.0000000000000000
-0.3920945623327731 0.1687175854906384 14.5317397882070622
Al Cu W Nb Ta
16 24 7 2 13
Direct
0.8241376307027967 0.1079014467028458 0.4376243866763012
0.1041598653557544 0.2359954164324092 0.1417615090137344
0.0221838967754440 0.0026303243829377 0.7051854428135559
0.1561692558965031 0.1236672386124802 0.7681375957259625
0.4911276815059811 0.0170603741607924 0.9073299013369663
0.0127433549922255 0.1311329088117274 0.8297511473297666
0.2146820403311112 0.3339891592421021 0.8991479768161292
0.2627167976453225 0.2674194860274814 0.0428728742068584
0.1617011552403418 0.3473141475603188 0.5383900726161690
0.0808756468537153 0.4786894991669383 0.9824777850129107
0.5279810702596559 0.3338953145000026 0.0453824328591028
0.1271085621382944 0.5604563097565770 0.6525313441514741
0.3886191968213326 0.4216500647389596 0.8790446886395418
0.0568472011153309 0.3472130596156670 0.7664437294886738
0.7649924705514536 0.1946673533595093 0.1215714442062877
0.9552009668095296 0.2659749933443410 0.0629585455632968
0.9964491815362009 0.2523084336891752 0.3644721665618371
0.2511225798068455 0.1403504179271343 -0.0008270979779911
0.5034241706823782 0.1058700863590386 0.7915938280855644
0.0260442733828688 0.2657538943583601 0.6897919782262458
0.1396953624902903 0.1524841282400409 0.9110919964322340
0.2481137315628116 0.0267592262621179 0.8368629425372719
0.2682122935419095 0.0512899663849536 0.6660580797142950
0.4099533583436926 0.1554413150472705 0.2321600006304654
0.1444035492331954 0.2173053390248214 -0.0057927852563458
0.4409015025507361 0.1265348181985415 0.4999321188785081
0.8846273938709669 0.0576316084464875 0.1803029021344867
0.2825194952703198 0.1369699394702178 0.8448543611830419
0.6421778745908044 0.1974985034225572 -0.0216212841962219
0.4759268284113232 0.5159307556500470 0.8211394500889185
0.3798773978515919 0.4785819722546334 0.7146543884181417
0.4111292854143594 0.4849354679043638 0.9663437957121235
0.3303371289086786 0.3574759258877807 0.7974690498723549
0.2394305623991668 0.4262062252413770 0.9394844944571913
0.0254314508802887 0.5961353469767853 0.5200031416728806
0.3962354865193119 0.3755186505430642 -0.0066821458220624
0.3953402857813842 0.5255727682204082 0.2542830339277447
0.2604034038476560 0.4756059132934512 0.2008248170124886
0.3407696081594263 0.4407613432941582 0.0801461946888504
0.0141561347740411 0.4272779572431625 0.5672135843132791
0.4671547642149482 0.3511121900323403 0.2628513500595865
0.3621299661321540 0.3285047479121200 0.1401289458592864
0.6414538879604538 -0.0090256051200071 -0.0175752142835470
0.8786887305716985 0.4634375825415370 0.7711862637014355
0.7171223097284400 0.4936050744361649 0.7772133075548365
0.8723559097449000 0.3228045766028800 0.1510605817303316
0.8398632347445973 0.4102061273199651 0.1066616640184955
0.2026877025818655 0.2996600999522254 0.2016193570300143
0.1096609634681347 0.3024572747996938 0.0336351045399242
0.9006227395767374 -0.0096365878387674 0.8294295282937315
0.3102263222985216 0.0594594215796295 0.4816187461536344
0.4504315107775204 0.2542852092797669 0.2107390227404703
0.2356628647370485 0.3587208677542410 0.0424355336182725
0.0340796978034984 0.4390898542391425 0.7808492019225001
0.9803125125638377 0.5202366196574949 0.8613797597511748
0.2996845781885301 0.3837320650595673 0.2338123554851893
0.2917912798374332 0.4673039182465450 0.3884836245241456
0.1396143643998467 0.2118059922171358 0.7759264873942879
0.6210285688181120 0.5296471905565198 0.9122710856839712
0.1349061943028583 0.5175970069258148 0.1182603313387929
0.7162328253459265 0.4523003466380929 0.9872172016564881
0.8043667001769903 0.5151574003837107 0.9111940690129506
