Al2 Cu1 
1.0
4.0593117436643462e+00 0.0000000000000000e+00 0.0000000000000000e+00 
-5.0470402805098120e-18 4.0593117436643462e+00 0.0000000000000000e+00 
-2.2822732748431612e-17 -4.6234395572234288e-18 2.9555937442476097e+00 
Al Cu 
2 1 
Cartesian
   2.0296558718   -0.0000000000    1.4777968721
  -0.0000000000    2.0296558718    1.4777968721
   4.0593117437    4.0593117437    0.0000000000
