Al12 Ni12 
1.0
8.1080799020568239e+00 0.0000000000000000e+00 0.0000000000000000e+00 
8.1376542494335873e-06 4.3029604846263263e+00 0.0000000000000000e+00 
-1.4941036028650222e-07 6.3060013215367883e-01 8.5701876643298505e+00 
Al Ni 
12 12 
Cartesian
   1.3513531890    2.0300546928    0.0202882053
   2.7360041748    3.1359673050    2.2104056620
   1.3513531538    2.3643561996    4.2830369871
   8.0747774944    3.1359673050    2.2104056620
   5.4053893644    0.3797481326    4.2008488874
   4.0734871358    2.1218787124    0.0236058106
   5.4053946220    2.9958478069    2.2204927729
   6.7372913826    2.1218830028    0.0236056392
   0.0143776721    3.3644426460    6.3352712656
   2.6883284511    3.3644426460    6.3352712656
   4.0593843673    1.1617845622    6.4213159498
   6.7513885160    1.1617845622    6.4213159498
   1.3513508910    0.9939589742    2.1828182279
   4.0582169652    0.8922874706    2.1357850380
   6.7525562409    0.8922874706    2.1357850380
   2.7192145509    4.8266069730    8.5182094761
   0.0071459897    0.3211560929    4.3032797704
   2.6955473131    0.3211560929    4.3032797704
   1.3513507302    1.2617261823    6.4434356041
   5.4053972670    4.9191000452    8.5571695493
   4.0766655517    2.5006968338    4.2887275917
   6.7341211719    2.5006968338    4.2887275917
   8.0915715374    4.8266069730    8.5182094761
   5.4053945433    3.3053409114    6.4609359273
