Al3 Cu1 
1.0
2.8154988349438521e+00 0.0000000000000000e+00 0.0000000000000000e+00 
2.6493616136777517e-17 2.8154988349438521e+00 0.0000000000000000e+00 
-1.6364115585958130e-18 5.8910816109449237e-17 7.5971867605348837e+00 
Al Cu 
3 1 
Cartesian
   2.8154988349    2.8154988349    3.7985933803
   1.4077494175    1.4077494175    5.8786423378
   1.4077494175    1.4077494175    1.7185444227
   2.8154988349    2.8154988349    7.5971867605
