Zr1 Nb1 Al6
1.0
   3.8829434900000002    0.0000000000000000    0.0000000000000000
   0.0000000000000000    3.8829434900000002    0.0000000000000000
  -0.0000000000000000   -0.0000000000000000    8.8008877200000004
Zr Nb Al
1 1 6
direct
   0.5000000000000000    0.5000000000000000    0.5000000000000000 Zr
  -0.0000000000000000   -0.0000000000000000   -0.0000000000000000 Nb
   0.5000000000000000    0.5000000000000000   -0.0000000000000000 Al
  -0.0000000000000000   -0.0000000000000000    0.5000000000000000 Al
  -0.0000000000000000    0.5000000000000000    0.2440410999999990 Al
   0.5000000000000000    0.0000000000000000    0.7559589000000000 Al
   0.5000000000000000   -0.0000000000000000    0.2440410999999990 Al
   0.0000000000000000    0.5000000000000000    0.7559589000000000 Al
