hcp_Al12_Cu6_Nb0_Ni0_Ta0_W3_Zr3         
   1.00000000000000     
     8.5949501949246212    0.0000000000000000    0.0000000000000000
     0.0000000000000000    4.8720708776610282   -0.0393071104751513
     0.0000000000000000   -0.0753457336722118    9.1826062047866408
   Al   Cu   W    Zr
    12     6     3     3
Direct
  0.0094454747764813  0.6252342903263889  0.7643692367946029
  0.1666669999999968  0.5346684286852791  0.5005313159009473
  0.3238875252235217  0.6252342903263889  0.7643692367946029
  0.4793228697172640  0.1044478563140323  0.7373107669926052
  0.6666669999999968  0.0040781673280123  0.4901620746681460
  0.8540101302827394  0.1044478563140323  0.7373107669926052
  0.4953265810707879  0.5057500252052701  0.0130418997768616
  0.6666669999999968  0.6960008681623706  0.2384494087681145
  0.8380064189292156  0.5057500252052701  0.0130418997768616
  0.0054320191229636  0.0185385440362216  0.0019764085516158
  0.1666669999999968  0.1937069093546095  0.2664774876050452
  0.3279009808770397  0.0185385440362216  0.0019764085516158
  0.0188125877859642  0.0070521622480680  0.5095566290187641
  0.1666669999999968  0.1478866128209311  0.7591539877929534
  0.3145204122140388  0.0070521622480680  0.5095566290187641
  0.4995066501189845  0.1702455179039908  0.2331223587199633
  0.6666669999999968  0.0485621957765593 -0.0270250985926360
  0.8338263498810189  0.1702455179039908  0.2331223587199633
  0.0090943752893419  0.6990884289414210  0.2465097317987111
  0.1666669999999968  0.5219339427907955  0.0203236479008142
  0.3242386247106613  0.6990884289414211  0.2465097317987111
  0.4872696881447194  0.5020264734526073  0.4907809703070762
  0.6666669999999968  0.5884002782254035  0.7585911720362147
  0.8460633118552839  0.5020264734526073  0.4907809703070762
 
  0.00000000E+00  0.00000000E+00  0.00000000E+00
  0.00000000E+00  0.00000000E+00  0.00000000E+00
  0.00000000E+00  0.00000000E+00  0.00000000E+00
  0.00000000E+00  0.00000000E+00  0.00000000E+00
  0.00000000E+00  0.00000000E+00  0.00000000E+00
  0.00000000E+00  0.00000000E+00  0.00000000E+00
  0.00000000E+00  0.00000000E+00  0.00000000E+00
  0.00000000E+00  0.00000000E+00  0.00000000E+00
  0.00000000E+00  0.00000000E+00  0.00000000E+00
  0.00000000E+00  0.00000000E+00  0.00000000E+00
  0.00000000E+00  0.00000000E+00  0.00000000E+00
  0.00000000E+00  0.00000000E+00  0.00000000E+00
  0.00000000E+00  0.00000000E+00  0.00000000E+00
  0.00000000E+00  0.00000000E+00  0.00000000E+00
  0.00000000E+00  0.00000000E+00  0.00000000E+00
  0.00000000E+00  0.00000000E+00  0.00000000E+00
  0.00000000E+00  0.00000000E+00  0.00000000E+00
  0.00000000E+00  0.00000000E+00  0.00000000E+00
  0.00000000E+00  0.00000000E+00  0.00000000E+00
  0.00000000E+00  0.00000000E+00  0.00000000E+00
  0.00000000E+00  0.00000000E+00  0.00000000E+00
  0.00000000E+00  0.00000000E+00  0.00000000E+00
  0.00000000E+00  0.00000000E+00  0.00000000E+00
  0.00000000E+00  0.00000000E+00  0.00000000E+00
