Al1 Ni3 
1.0
3.5703295897586655e+00 0.0000000000000000e+00 0.0000000000000000e+00 
-2.4373854341342709e-17 3.5703295897586664e+00 0.0000000000000000e+00 
-1.1470049101808360e-17 -4.5880196407241297e-17 3.5703295897586669e+00 
Al Ni 
1 3 
Cartesian
   0.0000000000    3.5703295898    0.0000000000
   3.5703295898    1.7851647949    1.7851647949
   1.7851647949    3.5703295898    1.7851647949
   1.7851647949    1.7851647949    0.0000000000
