Nb1 Ta1 W1 
1.0
7.2677157263959833e+00 0.0000000000000000e+00 0.0000000000000000e+00 
6.5324043171391635e+00 2.7262222976231580e+00 0.0000000000000000e+00 
7.3538168859419284e-01 -7.9819322067641418e-01 2.6068252838831878e+00 
Nb Ta W 
1 1 1 
Cartesian
  13.7451053665    2.7112923227    0.0110443106
   9.5039756426    1.5673638853    0.8571528284
   5.0865797328    0.3756059872    1.7386195163
