Zr14 Cu20
1.0
   9.3098450100000001    0.0000000000000000    0.0000000000000000
   0.0000000000000000    4.6386600700000002    6.3410395600000005
   0.0000000000000000   -4.6386600700000002    6.3410395600000005
Zr Cu
14 20
direct
   0.5000000000000000    0.7574297600000001    0.7574297600000001 Zr
   0.0000000000000000    0.2574307600000000    0.2574307600000000 Zr
   0.7499959700000001    0.9310816000000000    0.4610457400000000 Zr
   0.2500030300000000    0.4610457400000000    0.9310816000000000 Zr
   0.7500040300000000    0.4310815999999990    0.9610467400000000 Zr
   0.2499959700000000    0.9610467400000000    0.4310815999999990 Zr
   0.8067904500000000    0.6360065200000000    0.2561653100000000 Zr
   0.1932095500000000    0.2561653100000000    0.6360065200000000 Zr
   0.6932095500000001    0.1360065200000000    0.7561643100000001 Zr
   0.3067904500000000    0.7561643100000001    0.1360065200000000 Zr
   0.5000000000000000    0.4461176200000000    0.4461176200000000 Zr
   0.0000000000000000    0.9461176200000000    0.9461176200000000 Zr
   0.5000000000000000    0.1348709800000000    0.1348709800000000 Zr
   0.0000000000000000    0.6348699800000001    0.6348699800000001 Zr
   0.7964430300000001    0.0733144700000000    0.1109717200000000 Cu
   0.2035579700000000    0.1109717200000000    0.0733144700000000 Cu
   0.7035569700000001    0.5733144700000000    0.6109717200000000 Cu
   0.2964430300000000    0.6109717200000000    0.5733144700000000 Cu
   0.7035653800000000    0.2814469900000000    0.3187520500000000 Cu
   0.2964346200000000    0.3187520500000000    0.2814469900000000 Cu
   0.7964346200000000    0.7814469900000001    0.8187530500000000 Cu
   0.2035653800000000    0.8187530500000000    0.7814469900000001 Cu
   0.5084333500000000    0.7959449300000000    0.3892625600000000 Cu
   0.4915666500000000    0.3892625600000000    0.7959449300000000 Cu
   0.9915666500000000    0.2959459300000000    0.8892625600000000 Cu
   0.0084333500000000    0.8892625600000000    0.2959459300000000 Cu
   0.5084615500000000    0.5031091000000000    0.0963958300000000 Cu
   0.4915374500000000    0.0963958300000000    0.5031091000000000 Cu
   0.9915374500000000    0.0031100999999990    0.5963948300000000 Cu
   0.0084625500000000    0.5963948300000000    0.0031100999999990 Cu
   0.6026297100000000    0.8398657900000001    0.0525130200000000 Cu
   0.3973702900000000    0.0525130200000000    0.8398657900000001 Cu
   0.8973702900000000    0.3398647900000000    0.5525140200000001 Cu
   0.1026297100000000    0.5525140200000001    0.3398647900000000 Cu
