Al16 Cu8 Ta8 
1.0
8.3135823075013349e+00 0.0000000000000000e+00 0.0000000000000000e+00 
0.0000000000000000e+00 7.2155309793785536e+00 0.0000000000000000e+00 
0.0000000000000000e+00 0.0000000000000000e+00 8.3138334037695145e+00 
Al Cu Ta 
16 8 8 
Cartesian
   2.1435906893    3.7277236922    2.1436554325
   2.0888457498    7.1216569213    2.0889088395
   4.2007118091    7.1374084255    0.0572273577
   4.2007118091    1.8820052988    2.0212342356
   8.3031321345    1.8977568029    2.0889088395
   6.1912660753    1.8820052988    0.0572272746
   6.1912660753    7.1374084255    2.0212342356
   8.2483871950    5.2916900320    2.1436554325
   0.0572248811    7.1374084255    4.2008386838
   2.0211731899    1.8820052988    4.2008386838
   2.0888457498    1.8977568029    8.3033829152
   0.0572249642    1.8820052988    6.1914530710
   2.0211731899    7.1374084255    6.1914530710
   2.1435906893    5.2916900320    8.2486363222
   8.3031321345    7.1216569213    8.3033829152
   8.2483871950    3.7277236922    8.2486363222
   4.1632175529    3.6095260792    0.1170629312
   4.1632175529    5.4098876450    1.9613912628
   6.2287603315    5.4098876450    0.1170629312
   6.2287603315    3.6095260792    1.9613912628
   0.1170593957    3.6095260792    4.1633432951
   1.9613403380    5.4098876450    4.1633432951
   0.1170593957    5.4098876450    6.2289484596
   1.9613320244    3.6095260792    6.2289484596
   4.0793085666    0.0034428617    4.0794317746
   4.1107422213    3.6356607325    4.1108663787
   6.3126693177    1.8004409366    4.0794317746
   6.2812356630    5.3837529918    4.1108663787
   4.0793085666    1.8004409366    6.3128599802
   4.1107422213    5.3837529918    6.2814253761
   6.3126693177    0.0034428978    6.3128599802
   6.2812356630    3.6356607325    6.2814253761
