Ta2 Ni6                                 
   1.00000000000000     
     4.2069476400000001    0.0000000000000000    0.0000000000000000
     0.0000000000000000    4.5083417399999997    0.0000000000000000
     0.0000000000000000    0.0000000000000000    5.0673610499999997
   Ta   Ni
     2     6
Direct
  0.2500000000000000  0.6502780200000018  0.2500000000000000
  0.7500000000000000  0.3497219799999982  0.7500000000000000
  0.7500000000000000  0.3184555500000030  0.2500000000000000
  0.2500000000000000  0.6815444499999970  0.7500000000000000
  0.2500000000000000  0.1578675000000018  0.4993544599999993
  0.7500000000000000  0.8421324999999982  0.5006455400000007
  0.2500000000000000  0.1578675000000018  0.0006445400000032
  0.7500000000000000  0.8421324999999982  0.9993544599999993
 
  0.00000000E+00  0.00000000E+00  0.00000000E+00
  0.00000000E+00  0.00000000E+00  0.00000000E+00
  0.00000000E+00  0.00000000E+00  0.00000000E+00
  0.00000000E+00  0.00000000E+00  0.00000000E+00
  0.00000000E+00  0.00000000E+00  0.00000000E+00
  0.00000000E+00  0.00000000E+00  0.00000000E+00
  0.00000000E+00  0.00000000E+00  0.00000000E+00
  0.00000000E+00  0.00000000E+00  0.00000000E+00
