Zr6 Al16 Ni7                            
   1.00000000000000     
    -0.0000000000000000    6.0466856744532427    6.0466856744532427
     6.0466856744532427    0.0000000000000000    6.0466856744532427
     6.0466856744532427    6.0466856744532427   -0.0000000000000000
   Zr   Al   Ni
     6    16     7
Direct
  0.6911114053969011  0.6911114053969011  0.3088885946030990
  0.3088885946030990  0.6911114053969011  0.3088885946030990
  0.6911114053969011  0.3088885946030990  0.3088885946030990
  0.3088885946030990  0.3088885946030990  0.6911114053969011
  0.6911114053969011  0.3088885946030990  0.6911114053969011
  0.3088885946030990  0.6911114053969011  0.6911114053969011
  0.8809058390853198  0.8809058390853198  0.3572834827440377
  0.8809058390853198  0.3572834827440377  0.8809058390853198
  0.3572834827440377  0.8809058390853198  0.8809058390853198
  0.8809058390853198  0.8809058390853198  0.8809058390853198
  0.1190941609146801  0.1190941609146801  0.6427165172559622
  0.1190941609146801  0.6427165172559622  0.1190941609146801
  0.6427165172559622  0.1190941609146801  0.1190941609146801
  0.1190941609146801  0.1190941609146801  0.1190941609146801
  0.6664519548403220  0.6664519548403220  0.0006441354790198
  0.6664519548403220  0.0006441354790198  0.6664519548403220
  0.0006441354790198  0.6664519548403220  0.6664519548403220
  0.6664519548403220  0.6664519548403220  0.6664519548403220
  0.3335480451596709  0.3335480451596709  0.9993558645209802
  0.3335480451596709  0.9993558645209802  0.3335480451596709
  0.9993558645209802  0.3335480451596709  0.3335480451596709
  0.3335480451596709  0.3335480451596709  0.3335480451596709
 -0.0000000000000000  0.0000000000000000 -0.0000000000000000
 -0.0000000000000000  0.0000000000000000  0.5000000000000000
  0.5000000000000000  0.0000000000000000  0.5000000000000000
 -0.0000000000000000  0.5000000000000000  0.5000000000000000
  0.5000000000000000  0.5000000000000000 -0.0000000000000000
 -0.0000000000000000  0.5000000000000000 -0.0000000000000000
  0.5000000000000000  0.0000000000000000 -0.0000000000000000
 
  0.00000000E+00  0.00000000E+00  0.00000000E+00
  0.00000000E+00  0.00000000E+00  0.00000000E+00
  0.00000000E+00  0.00000000E+00  0.00000000E+00
  0.00000000E+00  0.00000000E+00  0.00000000E+00
  0.00000000E+00  0.00000000E+00  0.00000000E+00
  0.00000000E+00  0.00000000E+00  0.00000000E+00
  0.00000000E+00  0.00000000E+00  0.00000000E+00
  0.00000000E+00  0.00000000E+00  0.00000000E+00
  0.00000000E+00  0.00000000E+00  0.00000000E+00
  0.00000000E+00  0.00000000E+00  0.00000000E+00
  0.00000000E+00  0.00000000E+00  0.00000000E+00
  0.00000000E+00  0.00000000E+00  0.00000000E+00
  0.00000000E+00  0.00000000E+00  0.00000000E+00
  0.00000000E+00  0.00000000E+00  0.00000000E+00
  0.00000000E+00  0.00000000E+00  0.00000000E+00
  0.00000000E+00  0.00000000E+00  0.00000000E+00
  0.00000000E+00  0.00000000E+00  0.00000000E+00
  0.00000000E+00  0.00000000E+00  0.00000000E+00
  0.00000000E+00  0.00000000E+00  0.00000000E+00
  0.00000000E+00  0.00000000E+00  0.00000000E+00
  0.00000000E+00  0.00000000E+00  0.00000000E+00
  0.00000000E+00  0.00000000E+00  0.00000000E+00
  0.00000000E+00  0.00000000E+00  0.00000000E+00
  0.00000000E+00  0.00000000E+00  0.00000000E+00
  0.00000000E+00  0.00000000E+00  0.00000000E+00
  0.00000000E+00  0.00000000E+00  0.00000000E+00
  0.00000000E+00  0.00000000E+00  0.00000000E+00
  0.00000000E+00  0.00000000E+00  0.00000000E+00
  0.00000000E+00  0.00000000E+00  0.00000000E+00
