Cu-Zr from LAMMPS dump
1.0
15.7585000300273901 0.0000000000000000 0.0000000000000000
1.1967285775140266 16.5837474904931881 0.0000000000000000
-0.7013186711758546 3.5473740120304176 21.2068729610635103
Cu Zr
52 204
Direct
0.2283350000000000 0.0691466000000000 0.1700630000000000
0.2939530000000000 0.3416320000000000 0.0230489000000000
0.3826850000000000 0.3630630000000000 0.1612190000000000
0.1737140000000000 0.1764830000000000 0.4762610000000000
0.4426140000000000 0.1460970000000000 0.3714480000000000
0.4605980000000000 0.2791430000000000 0.3905710000000000
0.0766112000000000 0.4113270000000000 0.6171060000000000
0.2061240000000000 0.3808560000000000 0.5539610000000000
0.1675000000000000 0.2079000000000000 0.7609780000000000
0.4223910000000000 0.0378585000000000 0.8540090000000000
0.2671050000000000 0.0627373000000000 0.8310730000000000
0.3433630000000000 0.2969410000000000 0.7783070000000000
0.2054760000000000 0.6365510000000000 0.1197710000000000
0.4278600000000000 0.6161489999999999 0.2440590000000000
0.1285750000000000 0.9386550000000000 0.1862900000000000
0.4276600000000000 0.7536990000000000 0.4486020000000000
0.1133380000000000 0.6656810000000000 0.6407080000000001
0.1024100000000000 0.6650430000000001 0.5087140000000000
0.1512260000000000 0.9378040000000000 0.6090200000000000
0.0743166000000000 0.8120510000000000 0.6653210000000001
0.4283510000000000 0.9270870000000000 0.6092030000000001
0.4270070000000000 0.5445780000000000 0.8721190000000000
0.0332080000000000 0.9889220000000000 0.9879840000000000
0.7079020000000000 0.0250735000000000 0.1435260000000000
0.5473140000000000 0.1864630000000000 0.4789620000000000
0.9841569999999999 0.0376926000000000 0.4700490000000000
0.9142420000000000 0.0602170000000000 0.3418950000000000
0.5800460000000000 0.3154140000000000 0.2645050000000000
0.5889630000000000 0.4499810000000000 0.4307160000000000
0.8153530000000000 0.3083850000000000 0.4634680000000000
0.9488480000000000 0.3972800000000000 0.3976220000000000
0.7051400000000000 0.2181100000000000 0.5113839999999999
0.9442320000000000 0.0570269000000000 0.6661980000000000
0.5653440000000000 0.1001600000000000 0.8598380000000000
0.8291870000000000 0.2224580000000000 0.8723580000000000
0.8810789999999999 0.3437290000000000 0.9103850000000000
0.6019890000000000 0.2362560000000000 0.8231520000000000
0.7854280000000000 0.2561050000000000 0.9898230000000000
0.5933380000000000 0.7743850000000000 0.2091840000000000
0.6847350000000000 0.9268110000000001 0.2242180000000000
0.7516969999999999 0.8518040000000000 0.0322808000000000
0.9821250000000000 0.9187660000000000 0.2414340000000000
0.6822620000000000 0.9919060000000000 0.0236042000000000
0.7749980000000000 0.6960660000000000 0.4981520000000000
0.5180310000000000 0.8482910000000000 0.3745560000000000
0.6280240000000000 0.5972530000000000 0.6324390000000000
0.9832860000000000 0.7309240000000000 0.5876230000000000
0.6330740000000000 0.9302180000000000 0.5582630000000000
0.8942950000000000 0.9045390000000000 0.6885940000000000
0.7759560000000000 0.6070090000000000 0.7530940000000000
0.6109280000000000 0.5737780000000000 0.8411900000000000
0.7825620000000000 0.7697619999999999 0.9385630000000000
0.1535450000000000 0.1965610000000000 0.2365410000000000
0.4084350000000000 0.0808703000000000 0.1176700000000000
0.3207650000000000 0.2301780000000000 0.1622570000000000
0.2543710000000000 0.2014440000000000 0.0134284000000000
0.1011130000000000 0.1589550000000000 0.1065170000000000
0.0366075000000000 0.0672125000000000 0.2286810000000000
0.4215430000000000 0.2357160000000000 0.0206239000000000
0.1630630000000000 0.3364570000000000 0.1020140000000000
0.4380840000000000 0.4070960000000000 0.0412299000000000
0.0768591000000000 0.4871340000000000 0.0371559000000000
0.0122110000000000 0.3269730000000000 0.1808400000000000
0.2347380000000000 0.3585580000000000 0.2377620000000000
0.2703510000000000 0.4986190000000000 0.0939928000000000
0.4955550000000000 0.4771400000000000 0.1798080000000000
0.0918257000000000 0.4884570000000000 0.1857010000000000
0.2639500000000000 0.2232800000000000 0.3467460000000000
0.0736458000000000 0.0932593000000000 0.3709760000000000
0.3764510000000000 0.0841865000000000 0.2659900000000000
0.3052420000000000 0.0417392000000000 0.4051740000000000
0.2779570000000000 0.4929890000000000 0.4772870000000000
0.3064920000000000 0.3964600000000000 0.3661460000000000
0.4230480000000000 0.2845600000000000 0.2757870000000000
0.0652441000000000 0.4891970000000000 0.4815890000000000
0.1722170000000000 0.3256580000000000 0.4439560000000000
0.0943433000000000 0.3217670000000000 0.3234730000000000
0.3329600000000000 0.2259580000000000 0.4767170000000000
0.4567810000000000 0.3701960000000000 0.4736870000000000
0.4913900000000000 0.4514860000000000 0.3239390000000000
0.1298820000000000 0.4998100000000000 0.3349420000000000
0.2328530000000000 0.2062140000000000 0.5932130000000000
0.2034920000000000 0.0432034000000000 0.6872700000000000
0.4097790000000000 0.1408500000000000 0.6049170000000000
0.0610932000000000 0.0999264000000000 0.5579170000000000
0.3436680000000000 0.1495040000000000 0.7356100000000000
0.0476716000000000 0.1980310000000000 0.6711440000000000
0.2783110000000000 0.0354892000000000 0.5495820000000000
0.4735670000000000 0.0352841000000000 0.5069250000000000
0.3438590000000000 0.4912190000000000 0.7425690000000000
0.2229050000000000 0.3610900000000000 0.6802690000000000
0.3686450000000000 0.3068700000000000 0.6121040000000000
0.0304411000000000 0.3807170000000000 0.7211310000000000
0.4759120000000000 0.3543980000000000 0.7076090000000000
0.0067267600000000 0.3285540000000000 0.5256250000000000
0.3310970000000000 0.0675781000000000 0.9511510000000000
0.1069570000000000 0.1241270000000000 0.9378700000000000
0.2448290000000000 0.2190530000000000 0.8752040000000000
0.4613330000000000 0.1994350000000000 0.8932190000000000
0.0748174000000000 0.0884488000000000 0.7898560000000000
0.2156630000000000 0.4730350000000000 0.9613720000000000
0.0247077000000000 0.2654150000000000 0.8456480000000000
0.3618460000000000 0.3605670000000000 0.9122050000000000
0.1839080000000000 0.3880210000000000 0.8240410000000000
0.1045680000000000 0.3334010000000000 0.9543680000000000
0.0229708000000000 0.6648590000000000 0.0930898000000000
0.3738970000000000 0.6368650000000000 0.1220220000000000
0.2848440000000000 0.7654090000000000 0.0051810400000000
0.3002980000000000 0.5086910000000000 0.2230740000000000
0.1458360000000000 0.6507039999999999 0.2419570000000000
0.4658320000000000 0.7694870000000000 0.0296642000000000
0.2015970000000000 0.8063650000000000 0.1405100000000000
0.0928406000000000 0.8220620000000000 0.0198658000000000
0.3786610000000000 0.9172270000000000 0.0573985000000000
0.4431550000000000 0.7784930000000000 0.1668460000000000
0.1606690000000000 0.9926890000000000 0.0618936000000000
0.3184770000000000 0.9309800000000000 0.2121650000000000
0.4944640000000000 0.7248040000000000 0.3169400000000000
0.4669690000000000 0.5551940000000000 0.4446390000000000
0.3141160000000000 0.5934330000000000 0.3591070000000000
0.3030490000000000 0.7399000000000000 0.2544740000000000
0.1279270000000000 0.6424330000000000 0.3925130000000000
0.2920640000000000 0.6735350000000000 0.4886260000000000
0.1948410000000000 0.9920690000000000 0.3067170000000000
0.3451380000000000 0.8665620000000001 0.3554730000000000
0.0092259000000000 0.8333990000000000 0.4885840000000000
0.0162095000000000 0.9200070000000000 0.3598240000000000
0.1452240000000000 0.9761310000000000 0.4774360000000000
0.1692620000000000 0.8191210000000000 0.4088460000000000
0.1424420000000000 0.8094130000000000 0.2840980000000000
0.1895110000000000 0.5379380000000000 0.6010730000000000
0.2969080000000000 0.6531230000000000 0.6641049999999999
0.1349650000000000 0.5400660000000000 0.7463400000000000
0.4859090000000000 0.6526760000000000 0.5599440000000000
0.3759230000000000 0.5106210000000000 0.6064730000000000
0.0071046900000000 0.5633960000000000 0.6177049999999999
0.1690500000000000 0.7927700000000000 0.5658650000000000
0.0931328000000000 0.9164310000000000 0.7396940000000000
0.3305900000000000 0.8402430000000000 0.5113240000000000
0.2818920000000000 0.8659600000000000 0.6767180000000000
0.4507790000000000 0.7747360000000000 0.6400500000000000
0.4415530000000000 0.9826130000000000 0.7261990000000000
0.2550520000000000 0.5806900000000000 0.8472750000000000
0.3692830000000000 0.5890720000000000 0.9843190000000001
0.0597950000000000 0.6215720000000000 0.8446720000000000
0.2003390000000000 0.7472630000000000 0.7536389999999999
0.4232750000000000 0.6604719999999999 0.7703910000000000
0.1589960000000000 0.6449220000000000 0.9772880000000000
0.1390760000000000 0.7906360000000000 0.8864360000000000
0.3384510000000000 0.7241260000000000 0.8753100000000000
0.1974250000000000 0.9555940000000001 0.9344170000000001
0.2738880000000000 0.9055780000000000 0.8117320000000000
0.4541750000000000 0.8258490000000001 0.7873289999999999
0.4099820000000000 0.8975310000000000 0.9141960000000000
0.0150256000000000 0.9144630000000000 0.8764040000000000
0.8430990000000000 0.0476789000000000 0.2174410000000000
0.5767180000000000 0.1155470000000000 0.0606570000000000
0.7241990000000000 0.2021060000000000 0.1071640000000000
0.5824720000000000 0.0721132000000000 0.2230470000000000
0.9031530000000000 0.1909030000000000 0.1337170000000000
0.8186420000000000 0.0624342000000000 0.0322407000000000
0.5176190000000001 0.2389910000000000 0.1617810000000000
0.7414060000000000 0.2068990000000000 0.2423820000000000
0.9794740000000000 0.0086826200000000 0.1014700000000000
0.6174250000000000 0.3807910000000000 0.1086150000000000
0.8076120000000000 0.3590570000000000 0.1661550000000000
0.9232000000000000 0.3594150000000000 0.0526040000000000
0.7507180000000000 0.4065520000000000 0.0249545000000000
0.6668100000000000 0.0749641000000000 0.4740810000000000
0.9548260000000000 0.2175540000000000 0.2786020000000000
0.9609040000000000 0.2114350000000000 0.4226980000000000
0.7860239999999999 0.1508110000000000 0.3924280000000000
0.5837780000000000 0.1551080000000000 0.3357240000000000
0.6600279999999999 0.4271040000000000 0.2614020000000000
0.9502960000000000 0.4286550000000000 0.2639520000000000
0.7911280000000001 0.3256100000000000 0.3284990000000000
0.6381400000000000 0.2964410000000000 0.3933440000000000
0.7731090000000000 0.4623850000000000 0.4012750000000000
0.5582279999999999 0.2556210000000000 0.5811110000000000
0.5395500000000000 0.1593480000000000 0.7373430000000000
0.6046450000000000 0.0787848000000000 0.6255570000000000
0.7609180000000000 0.1610970000000000 0.6582100000000000
0.8773680000000000 0.1579100000000000 0.5457790000000000
0.8677560000000000 0.2913190000000000 0.6242000000000000
0.7788530000000000 0.4764720000000000 0.6427640000000000
0.8963590000000000 0.4734670000000000 0.5237790000000000
0.6581880000000000 0.3308720000000000 0.7069970000000000
0.7020180000000000 0.3683500000000000 0.5444460000000000
0.5257300000000000 0.4472220000000000 0.5803380000000000
0.9540140000000000 0.1914380000000000 0.9885780000000000
0.8842260000000000 0.0118200000000000 0.7637150000000000
0.7320340000000000 0.1220520000000000 0.7926910000000000
0.6892760000000000 0.1535580000000000 0.9391590000000000
0.8879030000000000 0.1967400000000000 0.7503710000000000
0.9041390000000000 0.0702065000000000 0.9036000000000000
0.9874220000000000 0.4787930000000000 0.8787920000000000
0.5979300000000000 0.3036180000000000 0.9955340000000000
0.7080260000000000 0.3530740000000000 0.8830780000000000
0.6850910000000000 0.4704160000000000 0.7707120000000000
0.8453670000000000 0.3486050000000000 0.7818950000000000
0.5937820000000000 0.4819630000000000 0.9541500000000001
0.5126460000000000 0.4112140000000000 0.8376680000000000
0.7872600000000000 0.4994440000000000 0.8948430000000001
0.6331430000000000 0.7416239999999999 0.0933387000000000
0.7128870000000000 0.5483150000000000 0.1307160000000000
0.5489760000000000 0.5828160000000000 0.0576906000000000
0.7571260000000000 0.7348600000000000 0.2271990000000000
0.9570450000000000 0.6252450000000001 0.2255110000000000
0.8344020000000000 0.7005540000000000 0.0880442000000000
0.8893320000000000 0.5155720000000000 0.1192730000000000
0.5879550000000000 0.6198830000000000 0.2111370000000000
0.8082300000000000 0.8831410000000000 0.1437760000000000
0.5721180000000000 0.9289530000000000 0.1027130000000000
0.9099420000000000 0.8908030000000000 0.0021364600000000
0.9969510000000000 0.8055450000000000 0.1746410000000000
0.5056460000000000 0.9164120000000000 0.2495420000000000
0.9389500000000000 0.6586530000000000 0.4740960000000000
0.9529670000000000 0.5697800000000000 0.3604190000000000
0.6203830000000000 0.5626550000000000 0.3444300000000000
0.7891990000000000 0.6366330000000000 0.3861990000000000
0.7768320000000000 0.5471130000000000 0.2635260000000000
0.8408160000000000 0.8628990000000000 0.2701710000000000
0.8455450000000000 0.8286520000000001 0.4045570000000000
0.6796240000000000 0.8056020000000000 0.3353280000000000
0.6071980000000000 0.7193410000000000 0.4454360000000000
0.6814630000000000 0.8852790000000000 0.4490010000000000
0.8379130000000000 0.9871120000000000 0.4700050000000000
0.9841360000000000 0.7354140000000000 0.3438170000000000
0.5308570000000000 0.9947240000000001 0.3694670000000000
0.7339980000000000 0.9965730000000000 0.3365350000000000
0.6593800000000000 0.7568170000000000 0.5836900000000000
0.8127420000000000 0.6256540000000000 0.6114790000000000
0.6098660000000000 0.6866560000000000 0.7213470000000000
0.9681760000000000 0.6931170000000000 0.7038990000000001
0.5027870000000000 0.5357270000000000 0.7038240000000000
0.6972540000000000 0.5562260000000000 0.5217960000000000
0.5948200000000000 0.8595040000000000 0.6807250000000000
0.8438059999999999 0.8138040000000000 0.5702199999999999
0.7788180000000000 0.7719549999999999 0.7130280000000000
0.7825780000000000 0.9782740000000000 0.6058740000000000
0.7110290000000000 0.9661530000000000 0.7369590000000000
0.9655410000000000 0.9465710000000001 0.5929450000000001
0.5182790000000000 0.8528060000000000 0.5037420000000000
0.8630679999999999 0.6589300000000000 0.8365629999999999
0.9148730000000000 0.5517330000000000 0.9853760000000000
0.9101200000000000 0.5213270000000000 0.7631240000000000
0.7115500000000000 0.6294110000000001 0.9809750000000000
0.5351669999999999 0.6707550000000000 0.9128460000000000
0.5765410000000000 0.9610590000000000 0.8252030000000000
0.6478670000000000 0.7727039999999999 0.8189780000000000
0.9850660000000000 0.7920480000000000 0.7869520000000000
0.5346560000000000 0.9967890000000000 0.9681310000000000
0.8203030000000000 0.8489650000000000 0.8375629999999999
0.6232690000000000 0.8318860000000000 0.9574210000000000
0.9576160000000000 0.7275970000000000 0.9401860000000000
0.7574520000000000 0.9622800000000000 0.9044620000000000
