Ni4 Nb4 Ta4 W20 
1.0
6.3030516846236999e+00 0.0000000000000000e+00 0.0000000000000000e+00 
-2.3844437645726725e-06 8.9351133783958439e+00 0.0000000000000000e+00 
-1.5938724126437058e-06 8.3843947553613759e-07 8.9351209621347607e+00 
Ni Nb Ta W 
4 4 4 20 
Cartesian
   3.1667583678    4.3805827066    4.3805860136
   4.7120516946    6.7883098385    4.3805860136
   4.7120519076    4.3805829326    6.7883151890
   3.1667572958    6.7883100644    6.7883151890
   3.1306554287    2.2672137516    2.2672154632
   4.7481553876    8.9016783969    2.2672154632
   4.7481622777    2.2672143742    8.9016857395
   3.1306524748    8.9016790194    8.9016857395
   6.1756334879    4.5074613285    4.5074647313
   1.7031765292    6.6614312404    4.5074647313
   6.1756325288    6.6614314425    6.6614364714
   1.7031767198    4.5074615306    6.6614364714
   0.0134876474    2.2666597745    2.2666614857
   0.0120643184    6.6634503648    2.2561269781
   1.5636972754    4.5054417816    2.2561180429
   1.5622716105    8.9022413090    2.2666614857
   3.1534271884    6.6685612462    2.2193321499
   4.7253836450    4.5003308933    2.2193321499
   3.1534281604    4.5003306864    0.0144487161
   4.7253834597    6.6685610393    0.0144471077
   1.5636974745    2.2561165508    4.5054453939
   0.0120638890    2.2561167533    6.6634647438
   4.7253838468    2.2193306886    4.5003345048
   3.1534275821    2.2193308920    6.6685666979
   1.5622721977    2.2666603972    8.9022397170
   3.1534285573    0.0144480539    4.5003345048
   4.7253840484    0.0144485254    6.6685666979
   0.0120637069    4.5054424063    8.9127742246
   1.5636955121    6.6634509894    8.9127742246
   0.0120636951    8.9127760177    4.5054453939
   1.5636953131    8.9127672851    6.6634558087
   0.0134841887    8.9022419316    8.9022397170
