Al3 Cu3 Zr3 Nb6 Ta3 W6 
1.0
9.9625746584721000e+00 0.0000000000000000e+00 0.0000000000000000e+00 
2.1340924606968911e-04 4.4818882498118553e+00 0.0000000000000000e+00 
3.8547674152552808e-02 -1.7557270471549527e-04 9.1216011473174046e+00 
Al Cu Zr Nb Ta W 
3 3 3 6 3 6 
Cartesian
   2.0592800272    2.0543446850    4.4503471054
   2.0656297661    4.2948425194    6.9130699559
   8.7373954217    4.2948882864    7.0966604222
   5.5396681249    2.0544158044    4.2481941807
   8.6172662980    2.0544862919    4.3117170111
   5.5338107487    4.2948917212    7.1510616515
   3.9080730156    2.0539381898    6.7083629830
   7.0443821793    4.2953351520    4.6040643279
   7.0491934610    2.0539855831    6.8074600578
   2.0757841095    4.2950724160    2.4203347700
   3.8001079596    4.2949923838    0.0584983788
   3.8075705019    2.0541312446    2.2668911955
   0.3326979616    2.0541222455    2.2687246374
   0.3987143975    4.2949870861    0.1008821722
   2.1070605748    2.0538668210    9.0191199584
   3.8926765650    4.2952195998    4.5533117391
   0.2768779170    4.2952851071    4.6427216736
   0.3475277472    2.0539109617    6.7258582140
   5.4569666046    4.2951063112    2.2893120912
   7.0433365110    4.2950579693    0.1438476501
   8.6674110553    4.2951151171    2.2975124106
   7.0797059266    2.0541782529    2.1531448292
   5.4561240036    2.0540935582    0.0335390328
   8.7187117710    2.0539061212    9.0729830132
