Nb8 Ni16                                
   1.00000000000000     
     2.4002586714446852   -4.1573700659644004   -0.0000000000000000
     2.4002586714446852    4.1573700659644004    0.0000000000000000
     0.0000000000000000   -0.0000000000000000   15.6312181128058363
   Nb   Ni
     8    16
Direct
 -0.0000000000000000  0.0000000000000000  0.4028238359295151
 -0.0000000000000000  0.0000000000000000  0.5971761640704849
 -0.0000000000000000  0.0000000000000000  0.9028238359295080
 -0.0000000000000000  0.0000000000000000  0.0971761640704850
  0.3333330000000032  0.6666669999999968  0.6550535762377474
  0.6666669999999968  0.3333330000000032  0.3449464237622528
  0.6666669999999968  0.3333330000000032  0.1550535762377473
  0.3333330000000032  0.6666669999999968  0.8449464237622526
  0.3333330000000032  0.6666669999999968  0.3758011680188824
  0.6666669999999968  0.3333330000000032  0.6241988319811177
  0.6666669999999968  0.3333330000000032  0.8758011680188823
  0.3333330000000032  0.6666669999999968  0.1241988319811176
  0.5000000000000000  0.5000000000000000  0.5000000000000000
  0.5000000000000000  0.0000000000000000  0.5000000000000000
 -0.0000000000000000  0.5000000000000000  0.5000000000000000
  0.5000000000000000  0.5000000000000000  0.0000000000000000
  0.5000000000000000  0.0000000000000000  0.0000000000000000
 -0.0000000000000000  0.5000000000000000  0.0000000000000000
  0.1646756860258378  0.8353243139741621  0.2500000000000000
  0.1646756860258471  0.3293513720516850  0.2500000000000000
  0.6706486279483150  0.8353243139741529  0.2500000000000000
  0.8353243139741621  0.1646756860258378  0.7500000000000000
  0.8353243139741529  0.6706486279483150  0.7500000000000000
  0.3293513720516850  0.1646756860258471  0.7500000000000000
 
  0.00000000E+00  0.00000000E+00  0.00000000E+00
  0.00000000E+00  0.00000000E+00  0.00000000E+00
  0.00000000E+00  0.00000000E+00  0.00000000E+00
  0.00000000E+00  0.00000000E+00  0.00000000E+00
  0.00000000E+00  0.00000000E+00  0.00000000E+00
  0.00000000E+00  0.00000000E+00  0.00000000E+00
  0.00000000E+00  0.00000000E+00  0.00000000E+00
  0.00000000E+00  0.00000000E+00  0.00000000E+00
  0.00000000E+00  0.00000000E+00  0.00000000E+00
  0.00000000E+00  0.00000000E+00  0.00000000E+00
  0.00000000E+00  0.00000000E+00  0.00000000E+00
  0.00000000E+00  0.00000000E+00  0.00000000E+00
  0.00000000E+00  0.00000000E+00  0.00000000E+00
  0.00000000E+00  0.00000000E+00  0.00000000E+00
  0.00000000E+00  0.00000000E+00  0.00000000E+00
  0.00000000E+00  0.00000000E+00  0.00000000E+00
  0.00000000E+00  0.00000000E+00  0.00000000E+00
  0.00000000E+00  0.00000000E+00  0.00000000E+00
  0.00000000E+00  0.00000000E+00  0.00000000E+00
  0.00000000E+00  0.00000000E+00  0.00000000E+00
  0.00000000E+00  0.00000000E+00  0.00000000E+00
  0.00000000E+00  0.00000000E+00  0.00000000E+00
  0.00000000E+00  0.00000000E+00  0.00000000E+00
  0.00000000E+00  0.00000000E+00  0.00000000E+00
