Ni15 Cu3 Nb3 W3 
1.0
7.8371895031171555e+00 0.0000000000000000e+00 0.0000000000000000e+00 
0.0000000000000000e+00 5.1785776076109942e+00 0.0000000000000000e+00 
0.0000000000000000e+00 0.0000000000000000e+00 7.2939019856168610e+00 
Ni Cu Nb W 
15 3 3 3 
Cartesian
   0.0000000506    2.5892888038    3.6469509928
   2.6123938886    2.5892888038    3.6469509928
   1.3062008629    3.8400654748    1.8939054140
   1.3062008629    1.3385121328    1.8939054140
   1.3062008629    1.3385121328    5.3999965716
   1.3062008629    3.8400654748    5.3999965716
   3.9185947516    3.8400654748    1.8939054140
   3.9185947516    3.8400654748    5.3999965716
   5.2247956145    2.5892888038    3.6469509928
   6.5309886402    3.8400654748    1.8939054140
   3.9185947516    1.3385121328    1.8939054140
   6.5309886402    1.3385121328    1.8939054140
   3.9185947516    1.3385121328    5.3999965716
   6.5309886402    1.3385121328    5.3999965716
   6.5309886402    3.8400654748    5.3999965716
   0.0000000454    2.5892888038    0.0000000074
   2.6123938886    2.5892888038    0.0000000499
   5.2247956145    2.5892888038    0.0000000706
   2.6123938886    0.0000000045    0.0000001178
   0.0000001197    0.0000000056    0.0000001386
   5.2247956145    5.1785776076    0.0000000198
   2.6123938886    0.0000000336    3.6469509928
   0.0000000967    0.0000000256    3.6469509928
   5.2247956145    0.0000000497    3.6469509928
