Nb4 Al1
1.0
   0.0000000000000000    2.2592050000000001   11.5510800000000007
   1.7126009999999989    0.0000000000000000   11.5510800000000007
   1.7126009999999989    2.2592050000000001    0.0000000000000000
Nb Al
4 1
direct
   0.4041420000000000    0.4041420000000000    0.5958580000000000 Nb
   0.8007050000000000    0.8007050000000000    0.1992950000000000 Nb
   0.1992950000000000    0.1992950000000000    0.8007050000000000 Nb
   0.5958580000000000    0.5958580000000000    0.4041420000000000 Nb
   0.0000000000000000    0.0000000000000000    0.0000000000000000 Al
