Cu6
1.0
  -1.2518289600000001   -2.1682320600000002   -0.0000000000000000
  -1.2518289600000001    2.1682320600000002   -0.0000000000000000
   0.0000000000000000    0.0000000000000000  -24.5755892700000018
Cu
6
direct
   0.6666660000000000    0.3333339999999990    0.9179025500000000 Cu
  -0.0000000000000000    0.0000000000000000    0.0020525800000000 Cu
   0.3333339999999990    0.6666660000000000    0.8336761400000000 Cu
   0.6666660000000000    0.3333339999999990    0.6654314500000000 Cu
   0.0000000000000000    0.0000000000000000    0.7496568600000000 Cu
   0.3333339999999990    0.6666660000000000    0.5812804200000000 Cu
