Ni3 Ta21 
1.0
9.8576599340169100e+00 0.0000000000000000e+00 0.0000000000000000e+00 
-4.5812765063340458e-08 4.6126985981865154e+00 0.0000000000000000e+00 
-5.6719750880681041e-08 2.9520770839306994e-02 9.1774769791799748e+00 
Ni Ta 
3 21 
Cartesian
   4.9322505285    0.4177858513    6.8913674637
   6.5717765431    0.3881483841    4.5978333693
   8.2112926713    0.4177858513    6.8913674637
   1.6429465902    0.3871122534    2.3048223911
   3.3195767995    2.6938734808    2.3122836799
   9.8239664114    2.6938734808    2.3122836799
   6.5717765346    2.6941062817    2.2484267950
   4.9608081975    0.3877779552    2.3580517576
   8.1827350586    0.3877779552    2.3580517576
   1.6429465531    2.6999353569    4.6069374264
   3.3354771857    0.4177545743    9.1116652918
   1.6429465249    2.7239050454    9.1519544157
   1.6429465618    0.4110969183    6.8856131856
   3.3276108006    0.3917138699    4.6841200078
   3.3507762650    2.7191075068    6.8488390353
   4.9535824677    2.7248858007    9.1585805541
   8.1899705160    2.7248858007    9.1585805541
   5.0201118430    2.6936645010    4.5919138966
   8.1234313398    2.6936645010    4.5919138966
   9.8080659867    0.4177545743    9.1116652918
   6.5717765152    0.4188654689    9.0793055079
   9.8159324268    0.3917138699    4.6841200078
   9.7927767472    2.7191075068    6.8488390353
   6.5717765059    2.7281219510    6.8735998682
