Cu3 Nb3 Ta6 W12 
1.0
9.5298856169649770e+00 0.0000000000000000e+00 0.0000000000000000e+00 
0.0000000000000000e+00 4.5296347588127697e+00 0.0000000000000000e+00 
0.0000000000000000e+00 0.0000000000000000e+00 8.9742679378639529e+00 
Cu Nb Ta W 
3 3 6 12 
Cartesian
   6.3532602546    0.3758278726    4.5270515127
   4.9302863239    0.3769412568    6.7312394095
   7.7762341853    0.3769412568    6.7312394095
   1.5883174461    0.3776469739    2.2522002302
   3.2069875779    0.3779078809    8.9405157161
   9.4995329313    0.3779078809    8.9405246904
   1.5883174461    2.6419910065    4.4385921537
   3.2650245813    2.6420770696    6.7221843731
   1.5883174461    0.3772927565    6.7074127281
   3.2939859037    0.3770409088    4.5088158003
   9.4414863980    2.6420770696    6.7221843731
   9.4125250756    0.3770409088    4.5088158003
   1.5883174461    2.6426115665    0.0323165183
   3.2526452599    2.6425843887    2.2271440741
   9.4538752493    2.6425843887    2.2271440741
   4.8284976157    2.6430192336    0.0020679675
   6.3532602546    2.6430600003    2.2466810554
   7.8780228935    2.6430192336    0.0020680213
   4.8100191675    0.3780496585    2.2463759303
   7.8964918119    0.3780496585    2.2463759303
   4.8524271584    2.6416105172    4.4771904801
   7.8540838209    2.6416105172    4.4771904801
   6.3532602546    0.3783730744    0.0476258117
   6.3532602546    2.6418369989    6.7539712302
