Ta2 Al2 Ni12                            
   1.00000000000000     
     2.5637565914985885   -4.4405573053062861   -0.0000000000000000
     2.5637565914985885    4.4405573053062861    0.0000000000000000
    -0.0000000000000000    0.0000000000000000    8.3172891614379196
   Ta   Al   Ni
     2     2    12
Direct
 -0.0000000000000000 -0.0000000000000000 -0.0000000000000000
 -0.0000000000000000 -0.0000000000000000  0.5000000000000000
  0.3333330000000032  0.6666669999999968  0.7500000000000000
  0.6666669999999968  0.3333330000000032  0.2500000000000000
  0.8269049311180446  0.6538098622378119  0.7500000000000000
  0.3461901377621880  0.1730950688819552  0.7500000000000000
  0.8269049311197670  0.1730950688802328  0.7500000000000000
  0.1730950688819552  0.3461901377621880  0.2500000000000000
  0.6538098622378119  0.8269049311180446  0.2500000000000000
  0.1730950688802328  0.8269049311197670  0.2500000000000000
  0.5000000000000000  0.5000000000000000 -0.0000000000000000
  0.5000000000000000 -0.0000000000000000 -0.0000000000000000
 -0.0000000000000000  0.5000000000000000 -0.0000000000000000
  0.5000000000000000  0.5000000000000000  0.5000000000000000
  0.5000000000000000 -0.0000000000000000  0.5000000000000000
 -0.0000000000000000  0.5000000000000000  0.5000000000000000
 
  0.00000000E+00  0.00000000E+00  0.00000000E+00
  0.00000000E+00  0.00000000E+00  0.00000000E+00
  0.00000000E+00  0.00000000E+00  0.00000000E+00
  0.00000000E+00  0.00000000E+00  0.00000000E+00
  0.00000000E+00  0.00000000E+00  0.00000000E+00
  0.00000000E+00  0.00000000E+00  0.00000000E+00
  0.00000000E+00  0.00000000E+00  0.00000000E+00
  0.00000000E+00  0.00000000E+00  0.00000000E+00
  0.00000000E+00  0.00000000E+00  0.00000000E+00
  0.00000000E+00  0.00000000E+00  0.00000000E+00
  0.00000000E+00  0.00000000E+00  0.00000000E+00
  0.00000000E+00  0.00000000E+00  0.00000000E+00
  0.00000000E+00  0.00000000E+00  0.00000000E+00
  0.00000000E+00  0.00000000E+00  0.00000000E+00
  0.00000000E+00  0.00000000E+00  0.00000000E+00
  0.00000000E+00  0.00000000E+00  0.00000000E+00
