Al1 Cu3 
1.0
4.1360182477539480e+00 0.0000000000000000e+00 0.0000000000000000e+00 
2.0680409124708512e+00 3.5818850430693177e+00 0.0000000000000000e+00 
2.0680278045055656e+00 1.1939746800678568e+00 3.3770977744076180e+00 
Al Cu 
1 3 
Cartesian
   4.1359356081    0.0000001041    0.0000000505
   2.0680341492    1.1939649308    0.8442744436
   4.1360021222    2.3879298616    1.6885488872
   6.2040776316    3.5818947924    2.5328233308
