fcc_Al16_Cu0_Nb0_Ni0_Ta4_W0_Zr12        
   1.00000000000000     
     8.7685382440177548    0.0000000000000000    0.0000000000000000
     0.0000000000000000    8.7685382440177548   -0.0000000000000000
    -0.0000000000000000    0.0000000000000000    7.9568474294425648
   Al   Ta   Zr
    16     4    12
Direct
  0.5078835022257501  0.4890580403116073  0.5157583564985967
  0.7421164977742499  0.7609419596883925  0.5157583564985967
  0.5078835022257501  0.7609419596883925  0.7342416435014033
  0.7421164977742499  0.4890580403116073  0.7342416435014033
 -0.0114398417565731  0.4885601582434269  0.5250740782231575
  0.2614398417565731  0.7614398417565731  0.5250740782231577
 -0.0114398417565731  0.7614398417565731  0.7249259217768425
  0.2614398417565731  0.4885601582434269  0.7249259217768425
 -0.0109419596883926  0.0078835022257500  0.5157583564985967
  0.2609419596883927  0.2421164977742500  0.5157583564985967
 -0.0109419596883926  0.2421164977742500  0.7342416435014033
  0.2609419596883927  0.0078835022257500  0.7342416435014033
  0.5021237357292577  0.0021237357292579 -0.0054464639861844
  0.7478762642707423  0.2478762642707421 -0.0054464639861844
  0.5021237357292577  0.2478762642707421  0.2554464639861845
  0.7478762642707423  0.0021237357292579  0.2554464639861845
  0.5094017170909032  0.0094017170909030  0.5032679468559106
  0.7405982829090968  0.2405982829090970  0.5032679468559106
  0.5094017170909032  0.2405982829090970  0.7467320531440894
  0.7405982829090968  0.0094017170909030  0.7467320531440894
 -0.0046444824734304  0.0048492348131113 -0.0236995830843935
  0.2546444824734304  0.2451507651868887 -0.0236995830843935
 -0.0046444824734304  0.2451507651868887  0.2736995830843933
  0.2546444824734304  0.0048492348131113  0.2736995830843933
  0.5048492348131113  0.4953555175265696 -0.0236995830843935
  0.7451507651868887  0.7546444824734309 -0.0236995830843935
  0.5048492348131113  0.7546444824734309  0.2736995830843933
  0.7451507651868887  0.4953555175265696  0.2736995830843933
 -0.0006886244495362  0.4993113755504640 -0.0295110075741437
  0.2506886244495360  0.7506886244495360 -0.0295110075741437
 -0.0006886244495362  0.7506886244495360  0.2795110075741437
  0.2506886244495360  0.4993113755504640  0.2795110075741437
 
  0.00000000E+00  0.00000000E+00  0.00000000E+00
  0.00000000E+00  0.00000000E+00  0.00000000E+00
  0.00000000E+00  0.00000000E+00  0.00000000E+00
  0.00000000E+00  0.00000000E+00  0.00000000E+00
  0.00000000E+00  0.00000000E+00  0.00000000E+00
  0.00000000E+00  0.00000000E+00  0.00000000E+00
  0.00000000E+00  0.00000000E+00  0.00000000E+00
  0.00000000E+00  0.00000000E+00  0.00000000E+00
  0.00000000E+00  0.00000000E+00  0.00000000E+00
  0.00000000E+00  0.00000000E+00  0.00000000E+00
  0.00000000E+00  0.00000000E+00  0.00000000E+00
  0.00000000E+00  0.00000000E+00  0.00000000E+00
  0.00000000E+00  0.00000000E+00  0.00000000E+00
  0.00000000E+00  0.00000000E+00  0.00000000E+00
  0.00000000E+00  0.00000000E+00  0.00000000E+00
  0.00000000E+00  0.00000000E+00  0.00000000E+00
  0.00000000E+00  0.00000000E+00  0.00000000E+00
  0.00000000E+00  0.00000000E+00  0.00000000E+00
  0.00000000E+00  0.00000000E+00  0.00000000E+00
  0.00000000E+00  0.00000000E+00  0.00000000E+00
  0.00000000E+00  0.00000000E+00  0.00000000E+00
  0.00000000E+00  0.00000000E+00  0.00000000E+00
  0.00000000E+00  0.00000000E+00  0.00000000E+00
  0.00000000E+00  0.00000000E+00  0.00000000E+00
  0.00000000E+00  0.00000000E+00  0.00000000E+00
  0.00000000E+00  0.00000000E+00  0.00000000E+00
  0.00000000E+00  0.00000000E+00  0.00000000E+00
  0.00000000E+00  0.00000000E+00  0.00000000E+00
  0.00000000E+00  0.00000000E+00  0.00000000E+00
  0.00000000E+00  0.00000000E+00  0.00000000E+00
  0.00000000E+00  0.00000000E+00  0.00000000E+00
  0.00000000E+00  0.00000000E+00  0.00000000E+00
