fcc_Al0_Cu4_Nb4_Ni4_Ta4_W0_Zr16         
   1.00000000000000     
     6.7207879978020477    0.0000000000000000    0.0000000000000000
     0.0000000000000000    9.4187356513788298    0.0000000000000000
     0.0000000000000000    0.0000000000000000    9.4925597450550629
   Cu   Nb   Ni   Ta   Zr
     4     4     4     4    16
Direct
  0.5211617808291215  0.5046583637681393  0.0096288340434384
  0.7288382191708785  0.7453416362318604  0.0096288340434384
  0.5211617808291215  0.7453416362318604  0.2403711659565616
  0.7288382191708785  0.5046583637681393  0.2403711659565616
  0.5168553888542575  0.0074799942997472 -0.0074203691390504
  0.7331446111457425  0.2425200057002528 -0.0074203691390504
  0.5168553888542576  0.2425200057002528  0.2574203691390503
  0.7331446111457424  0.0074799942997472  0.2574203691390503
  0.4963869901639945  0.0219299070327385  0.5187485217263876
  0.7536130098360057  0.2280700929672615  0.5187485217263876
  0.4963869901639945  0.2280700929672615  0.7312514782736124
  0.7536130098360055  0.0219299070327385  0.7312514782736124
 -0.0101259240745858  0.0121049391614771  0.5053493520605454
  0.2601259240745859  0.2378950608385230  0.5053493520605454
 -0.0101259240745858  0.2378950608385230  0.7446506479394546
  0.2601259240745859  0.0121049391614771  0.7446506479394546
 -0.0152934028726677 -0.0062931694664744 -0.0065964470887330
  0.2652934028726676  0.2562931694664743 -0.0065964470887330
 -0.0152934028726677  0.2562931694664743  0.2565964470887330
  0.2652934028726676 -0.0062931694664744  0.2565964470887330
 -0.0307002297135046  0.5011953042526733  0.0040345574790548
  0.2807002297135047  0.7488046957473267  0.0040345574790548
 -0.0307002297135046  0.7488046957473267  0.2459654425209452
  0.2807002297135047  0.5011953042526733  0.2459654425209452
  0.5270226844863681  0.4735617308048744  0.4940053606471316
  0.7229773155136319  0.7764382691951253  0.4940053606471316
  0.5270226844863681  0.7764382691951254  0.7559946393528683
  0.7229773155136319  0.4735617308048744  0.7559946393528683
 -0.0070304355280202  0.4911904863623078  0.4940216930111528
  0.2570304355280201  0.7588095136376923  0.4940216930111528
 -0.0070304355280202  0.7588095136376923  0.7559783069888476
  0.2570304355280201  0.4911904863623078  0.7559783069888476
 
  0.00000000E+00  0.00000000E+00  0.00000000E+00
  0.00000000E+00  0.00000000E+00  0.00000000E+00
  0.00000000E+00  0.00000000E+00  0.00000000E+00
  0.00000000E+00  0.00000000E+00  0.00000000E+00
  0.00000000E+00  0.00000000E+00  0.00000000E+00
  0.00000000E+00  0.00000000E+00  0.00000000E+00
  0.00000000E+00  0.00000000E+00  0.00000000E+00
  0.00000000E+00  0.00000000E+00  0.00000000E+00
  0.00000000E+00  0.00000000E+00  0.00000000E+00
  0.00000000E+00  0.00000000E+00  0.00000000E+00
  0.00000000E+00  0.00000000E+00  0.00000000E+00
  0.00000000E+00  0.00000000E+00  0.00000000E+00
  0.00000000E+00  0.00000000E+00  0.00000000E+00
  0.00000000E+00  0.00000000E+00  0.00000000E+00
  0.00000000E+00  0.00000000E+00  0.00000000E+00
  0.00000000E+00  0.00000000E+00  0.00000000E+00
  0.00000000E+00  0.00000000E+00  0.00000000E+00
  0.00000000E+00  0.00000000E+00  0.00000000E+00
  0.00000000E+00  0.00000000E+00  0.00000000E+00
  0.00000000E+00  0.00000000E+00  0.00000000E+00
  0.00000000E+00  0.00000000E+00  0.00000000E+00
  0.00000000E+00  0.00000000E+00  0.00000000E+00
  0.00000000E+00  0.00000000E+00  0.00000000E+00
  0.00000000E+00  0.00000000E+00  0.00000000E+00
  0.00000000E+00  0.00000000E+00  0.00000000E+00
  0.00000000E+00  0.00000000E+00  0.00000000E+00
  0.00000000E+00  0.00000000E+00  0.00000000E+00
  0.00000000E+00  0.00000000E+00  0.00000000E+00
  0.00000000E+00  0.00000000E+00  0.00000000E+00
  0.00000000E+00  0.00000000E+00  0.00000000E+00
  0.00000000E+00  0.00000000E+00  0.00000000E+00
  0.00000000E+00  0.00000000E+00  0.00000000E+00
