Converted from final.data
1.0
15.6865112886774654 0.0000000000000000 0.0000000000000000
0.4732325458915387 15.3779475820502753 0.0000000000000000
0.1278483308490755 -0.2562055979246773 33.0835414525298575
Al Zr Nb W Ta Ni
7 20 6 11 5 14
Direct
0.3944499792746011 0.8621619404314106 0.0912573660426321
0.5977608954365111 0.2781332409636256 0.0568893981267004
0.5267499966907701 0.0264373910048136 0.1190452076154604
0.4206033215177711 0.0894220700536833 0.4555446252392568
0.7086938893302459 0.3176337420980656 0.1891826417628008
0.2593165024978092 0.9393950543572273 0.1445284021924478
0.3462798529377910 -0.0067486174528311 0.4070518681852636
0.6499320283567118 0.9163099050445450 0.1532198642379421
-0.0098125316393073 0.1317993178427810 0.1820917959024682
0.4344461432985889 0.9583776870729410 0.1617295673965777
0.4770819604028154 0.4523788665560531 0.1861719746957679
0.1610712088214072 0.1413837534732364 -0.0095771511693874
0.6341366838283263 0.9217030450990382 0.9954019372877969
0.5823420713852115 0.2155598487643897 -0.0299769677869685
0.7084759019138084 0.0446445316169848 0.0937539114013781
0.8316813446788153 0.8831439433151838 0.1259024245795175
0.6141986405180051 0.2014299415147612 0.1363952736673209
0.3998597106621047 0.1362630313399856 -0.0479577147585568
0.2279832588795918 0.9970406078515844 0.0475028075959316
0.1703737227884493 0.0029605387055898 0.3635429170488250
0.5017682197965441 0.9217435368078035 0.3924602732660782
0.5888401907266889 0.7742285868811483 0.2061738625725268
0.4701142633149725 0.1165518031540973 0.1922210523930910
0.6756061468059623 0.0180995874707425 0.2582634773411187
0.5418546159993909 0.1981723227841770 0.2778371461543604
0.2935153787454736 0.0207128377837602 0.2013530706340059
0.3927641818060623 0.2732425104623659 0.4494508615745919
0.3235053604927434 0.0392257359882301 0.0986906129377308
0.3664878530483117 0.8800886647369180 0.0104398753367256
0.5350543502645909 0.1201633008757191 0.0364718890378451
0.4255755704237482 0.9676643161337226 0.9845154016683418
0.1566861118842606 0.1163377112038013 0.2316271281354746
0.4224397441759729 0.1777831297514867 0.1059969964457371
0.3414688687131441 0.1497636793300887 0.0367315472688230
0.2030614822825473 0.8402556329015510 -0.0092259342521913
0.1569536343681248 0.4092465830707459 0.2492950298341139
0.2295324233865385 0.2484663881904225 0.0515166147203123
0.1617164307569688 0.1031256253693988 0.0786279088426280
0.8311659382490477 0.3925121784123826 0.2738820180633357
0.1784570795519726 -0.0294984778229713 0.2753814564464199
0.6100256209022897 0.9659345856097025 0.4713406722709626
0.7540667675622508 0.4016364018545238 0.3568748403459320
0.7092792440623119 0.8953840760945255 0.0501709043567643
0.2226131559851879 0.5498282820302782 -0.0226190949583368
0.0396651827317499 0.2281535361788253 0.0475486648705154
0.9356470568835942 0.2696862003640980 0.1199528957072439
0.2512115323248565 0.7859817967980834 0.0744954580910497
0.1561473294133469 0.9418895004879515 0.2054109622205363
0.3214697654092751 0.6913159119456396 0.0076037089915332
0.1943972785474816 0.1090835203119664 0.9729890395934200
0.4948695628816789 0.3458453302049685 0.0944562191333692
0.0839415280711928 0.9670311394816681 0.9959300326789385
-0.0190842088844051 0.1740785085578385 -0.0165809091812556
0.1417260166473334 0.3584288849242928 0.1699538823672274
0.7185392533205743 0.1549429906964236 0.0444547415226698
0.3722098358535607 0.0043564007499107 0.0180113615832922
0.3052991217269357 0.3769785826264325 0.1956975635015153
0.2231888318351181 0.2699830056518631 0.2325651241189346
0.3763824043856894 0.2123305329813058 0.2216336747098788
0.1537316843405031 0.1171540608416664 0.5179947154007618
0.5028032542916948 0.2209567166974008 0.5286291920062137
0.5163874663953552 0.3698643857330733 0.3213727671874356
0.4478760991628182 0.2850441009576541 0.1744464055532209
