Converted from final.data
1.0
15.0319148717631226 0.0000000000000000 0.0000000000000000
-0.5670805887623377 33.5737852648684694 0.0000000000000000
-0.4120958566169497 -0.2542290969732806 15.1946395942573176
Al Nb W Ta Ni Cu
4 21 21 5 1 11
Direct
0.3707879069859025 0.3649607976241506 0.0031356505886124
0.5011278865722154 0.2789520616319224 0.4104528381606309
0.8511436344619002 0.2523972282892081 0.1184643868034187
0.8709308256573541 0.1650630253207300 0.9500941524644844
0.6403531946893762 0.2719046485025438 -0.0330068907801461
0.9256975548594818 0.5269810025149704 0.5224628675385490
0.0595061211994629 0.3168344508293729 0.3065894785628969
0.3342728140902165 0.2886128480227407 0.0558637847389492
0.2029564400637626 0.3064258754344401 0.7670121540016662
0.2902057712144011 0.2631411025270407 0.8955601613624722
0.1776436268407832 0.4561444992731347 0.4847042092279434
0.9816178958769735 0.9576166453234426 0.1042053070718651
0.4927289451847832 0.3574970064632859 0.1451835878929002
0.6611931669129861 0.9954235330712848 0.3689475122316912
0.2205022441843233 0.3555145398915111 0.1185759612663332
0.1848424401976622 0.2249059600918057 -0.0089673060736232
0.2627250850077976 0.9689252983771927 0.4343952239644327
0.2599398279248815 0.9791231443319230 0.8547281849759216
0.0454235510568159 0.2778703011793705 0.8755316060520805
0.8350368647593258 0.9762196795158252 0.2878635486645574
0.8351340201157009 -0.0206110508870196 0.1244163341963104
0.0673773039781413 0.5360925890820163 0.4630248196248372
0.1489443377474225 0.2910704928918513 0.1582988192918648
0.1300999529480856 0.4206046048921315 0.2251181191221492
0.3734881364257037 -0.0364852810924964 0.0249862102284490
0.1896731883544321 0.4989549837680510 0.2144354758050081
0.3706963648863597 0.4805978110294012 0.4648032591912707
0.5569033138526339 -0.0360201921696768 0.5551185840349833
0.9529624543131239 0.4267651020691064 0.0531328904445479
0.1299480693696963 0.6182876979616211 0.3924475342397873
0.4001589803314384 0.4422240083861128 0.9716758609923676
0.1155005717819122 0.2506034808997307 0.6639939574609116
0.5293802649736519 0.1232720598984107 0.8535807642493392
0.9727879632285490 0.2667518822096988 0.4194166584852907
0.9540500113300929 0.2385457515400812 0.7854604764394491
-0.0054474056284067 0.5655781691049429 0.3213845183761704
0.5479895463562815 0.0624106294636687 0.1348486588049090
-0.0203996778205434 0.2933016848613877 0.7101805735233974
0.8640774233530764 0.0834884644032203 0.2543135113716865
0.1346182318835827 0.9806926441062696 0.3196041825156100
0.3979731879710423 0.1765356814689731 0.8690833278790060
0.8642138018027615 0.0555677926021361 0.7463678463066735
0.0837494442765701 0.4016395565340380 0.0213020284895220
0.0080503957448106 0.3730434920871725 0.1758404892121471
0.9625778570701167 0.3191535478013721 0.5309063832165998
0.3867367504400103 0.1142581713839814 0.1206469378543420
0.7567233492334484 0.0617966670668283 0.4237550704203233
0.1780883465902168 0.1109432684465838 0.1922819107305110
0.1135371105277841 0.0195644031913417 0.2499208376665797
0.5436923326009585 0.2410000896540565 0.6770031747869234
-0.0133611836585182 0.2471520715238776 0.2603333419308445
0.4941062416988629 0.7979940913165643 0.0956606282756954
0.1182924575879244 0.3921458464141019 0.3750399964624579
-0.0407149018499197 0.4645608188141510 0.4788994626546548
0.3850536647378373 0.8521014687981822 -0.0351444650858407
0.1157349381653639 0.0190592979084003 0.9926644472423440
0.7985880032868058 0.4123877736956464 0.3321614199847628
0.7967666942221788 0.5787424474326684 0.1659398731336543
0.9046687029548484 0.3568956548543113 -0.0106473919190651
0.6369009770680061 0.9128265695224267 0.4783831610268684
0.5528592429099504 0.9082651317965570 0.1638464898430332
0.6384835158730249 0.6079266165663113 0.1635704852573711
0.8049593262622469 0.2384953639628470 0.2833330830565038
