Zr12 W12 
1.0
9.8127930618214982e+00 0.0000000000000000e+00 0.0000000000000000e+00 
-2.6639997877314556e-05 6.7445771700482533e+00 0.0000000000000000e+00 
3.0951706171950663e-05 4.2787236803735494e-02 6.7444967631802459e+00 
Zr W 
12 12 
Cartesian
   3.2709448844    3.4616348514    6.6766471257
   3.2709170692    6.6984184408    3.4192372905
   3.2709320245    6.7292849296    6.6867841044
   1.6354699348    1.8159186229    1.8044496420
   4.9063976845    1.8159186229    1.8044496420
   9.8128101966    3.4616348514    6.6766471257
  -0.0000106025    6.6984184408    3.4192372905
   0.0000043110    6.7292849296    6.6867841044
   6.5418824469    3.4616348514    6.6766471257
   6.5418546316    6.6984184408    3.4192372905
   6.5418695870    6.7292849296    6.6867841044
   8.1773254342    1.8159186229    1.8044496420
   1.6354843967    1.8048245512    4.9291345254
   3.2709299621    3.4827527865    3.4607564126
   1.6354719598    5.0035432303    4.9719418464
   1.6354574508    4.9404446216    1.7735328688
   0.0000023433    3.4827527865    3.4607564126
   4.9064121463    1.8048245512    4.9291345254
   4.9063997094    5.0035432303    4.9719418464
   4.9063852004    4.9404446216    1.7735328688
   8.1773398960    1.8048245512    4.9291345254
   6.5418675246    3.4827527865    3.4607564126
   8.1773274591    5.0035432303    4.9719418464
   8.1773129501    4.9404446216    1.7735328688
