Zr3 Al1
1.0
   4.3767431200000004    0.0000000000000000   -0.0000000000000000
   0.0000000000000000    4.3767420900000005    0.0000000000000000
   0.0000000000000000    0.0000000000000000    4.3767441500000004
Zr Al
3 1
direct
  -0.0000000000000000    0.5000000000000000    0.5000000000000000 Zr
   0.5000000000000000    0.5000000000000000   -0.0000000000000000 Zr
   0.5000000000000000    0.0000000000000000    0.5000000000000000 Zr
  -0.0000000000000000    0.0000000000000000   -0.0000000000000000 Al
