Zr4 Ta28 
1.0
8.5197581683675683e+00 0.0000000000000000e+00 0.0000000000000000e+00 
0.0000000000000000e+00 8.5197624616861312e+00 0.0000000000000000e+00 
0.0000000000000000e+00 0.0000000000000000e+00 8.5197604457261864e+00 
Zr Ta 
4 28 
Cartesian
   2.1701698402    2.1701709338    4.2196499140
   8.4795278703    8.4795321433    4.2196499140
   8.4795278703    2.1701709338    6.4300506431
   2.1701698402    8.4795321433    6.4300506431
   2.1682614143    2.1682625070    0.0585819580
   8.4814362961    2.1682625070    2.0713582386
   6.3638844824    2.1431206879    0.0259309985
   4.2858132280    2.1431206879    2.1040059606
   6.3312367691    2.1682625070    4.2215583404
   2.1682614143    8.4814405701    2.0713582386
   2.1431196080    6.3638876893    0.0259309985
   2.1431196080    4.2858153878    2.1040059606
   2.1682614143    6.3312399596    4.2215583404
   8.4814362961    8.4814405701    0.0585822136
   4.2858132280    8.5065823892    0.0259306577
   6.3638844824    8.5065823892    2.1040059606
   8.5065781025    4.2858153878    0.0259308281
   8.5065781025    6.3638876893    2.1040059606
   4.2732295452    4.2732316986    0.0133478235
   6.3764681652    6.3764713785    0.0133472271
   4.2732295452    6.3764713785    2.1165896468
   6.3764681652    4.2732316986    2.1165896468
   4.3184609413    8.4814405701    4.2215583404
   8.4814362961    4.3184631175    4.2215583404
   4.2858132280    4.2858153878    4.2467001535
   6.3638844824    6.3638876893    4.2467001535
   4.3184609413    2.1682625070    6.4281422168
   2.1682614143    4.3184631175    6.4281422168
   6.3312367691    8.4814405701    6.4281422168
   8.4814362961    6.3312399596    6.4281422168
   4.2858132280    6.3638876893    6.4030004037
   6.3638844824    4.2858153878    6.4030004037
