Cu3 Ta18 W3 
1.0
1.0079347161809126e+01 0.0000000000000000e+00 0.0000000000000000e+00 
0.0000000000000000e+00 6.3263571180271247e+00 0.0000000000000000e+00 
0.0000000000000000e+00 0.0000000000000000e+00 6.4630640765569858e+00 
Cu Ta W 
3 18 3 
Cartesian
   1.6798945534    4.7447678385    4.8472980574
   5.0396735809    4.7447678385    4.8472980574
   8.3994526084    4.7447678385    4.8472980574
   1.6798945534    1.5815892795    1.6157660191
   3.3597790275    6.3219160153    3.3002667247
   3.3597790275    6.3219160153    6.3943293901
   1.6798945534    4.7447678385    1.6157660191
   3.3597790275    3.1676196617    3.3002667247
   3.3597790275    3.1676196617    6.3943293901
   0.0000001425    6.3219160153    3.3002667247
   0.0000001086    6.3219160153    6.3943293901
   0.0000001200    3.1676196617    3.3002667247
   0.0000001227    3.1676196617    6.3943293901
   5.0396735809    1.5815892795    1.6157660191
   5.0396735809    4.7447678385    1.6157660191
   8.3994526084    1.5815892795    1.6157660191
   6.7195681343    6.3219160153    3.3002667247
   6.7195681343    6.3219160153    6.3943293901
   8.3994526084    4.7447678385    1.6157660191
   6.7195681343    3.1676196617    3.3002667247
   6.7195681343    3.1676196617    6.3943293901
   1.6798945534    1.5815892795    4.8472980574
   5.0396735809    1.5815892795    4.8472980574
   8.3994526084    1.5815892795    4.8472980574
