Zr1 Nb1
1.0
   1.7201879999999989   -2.4395560000000001    0.0000000000000000
   1.7201879999999989    2.4395560000000001    0.0000000000000000
   0.0000000000000000    0.0000000000000000    4.8694879999999996
Zr Nb
1 1
direct
   0.5000000000000000    0.5000000000000000    0.5000000000000000 Zr
   0.0000000000000000    0.0000000000000000    0.0000000000000000 Nb
