Al2 Cu6                                 
   1.00000000000000     
     4.2443593703561113    0.0000000000000000    0.0000000000000000
     0.0000000000000000    4.5475610966235607    0.0000000000000000
     0.0000000000000000    0.0000000000000000    5.2038180987136666
   Al   Cu
     2     6
Direct
 -0.0000000000000000  0.0013630148609591  0.0000000000000000
  0.5000000000000000  0.3316369851390393  0.5000000000000000
 -0.0000000000000000  0.0007705948323477  0.5000000000000000
  0.5000000000000000  0.3322294051676578  0.0000000000000000
 -0.0000000000000000  0.5024397466518922  0.2508423782671571
 -0.0000000000000000  0.5024397466518922  0.7491576217328431
  0.5000000000000000  0.8305602533481062  0.2491576217328429
  0.5000000000000000  0.8305602533481062  0.7508423782671569
 
  0.00000000E+00  0.00000000E+00  0.00000000E+00
  0.00000000E+00  0.00000000E+00  0.00000000E+00
  0.00000000E+00  0.00000000E+00  0.00000000E+00
  0.00000000E+00  0.00000000E+00  0.00000000E+00
  0.00000000E+00  0.00000000E+00  0.00000000E+00
  0.00000000E+00  0.00000000E+00  0.00000000E+00
  0.00000000E+00  0.00000000E+00  0.00000000E+00
  0.00000000E+00  0.00000000E+00  0.00000000E+00
