Al4 Ni2 Cu4 
1.0
3.0366908257257554e+00 0.0000000000000000e+00 0.0000000000000000e+00 
0.0000000000000000e+00 3.0366924188704294e+00 0.0000000000000000e+00 
0.0000000000000000e+00 0.0000000000000000e+00 1.3848207314444799e+01 
Al Ni Cu 
4 2 4 
Cartesian
   3.0366908257    3.0366924189    2.6351892181
   0.0000000887    0.0000000827    5.5699844014
   3.0366908257    0.0000000194    8.5106789210
   3.0366908257    0.0000001874   13.7195159239
   1.5183454129    1.5183462094    1.2927758519
   0.0000000991    0.0000002088   11.0986042075
   1.5183454129    1.5183462094    4.1243146470
   1.5183454129    1.5183462094    7.0138261924
   1.5183454129    1.5183462094    9.8039768503
   1.5183454129    1.5183462094   12.3962781704
