Al3 Ni3 Cu3 Nb9 Ta3 W3 
1.0
9.9916160761748234e+00 0.0000000000000000e+00 0.0000000000000000e+00 
9.2810617115666823e-05 6.2085471541665900e+00 0.0000000000000000e+00 
9.1804984043157510e-05 1.3396580581845619e-01 6.1413613778599867e+00 
Al Ni Cu Nb Ta W 
3 3 3 9 3 3 
Cartesian
   9.9917078110    3.1203050110    3.0835836892
   3.3306270963    3.1203050110    3.0835836892
   6.6611724495    3.1203050110    3.0835836892
   1.6653645410    1.7080822806    4.5361876132
   4.9958999026    1.7080822806    4.5361876132
   8.3264352641    1.7080822806    4.5361876132
   1.6653649757    4.5937614693    1.6158413094
   4.9959003372    4.5937614693    1.6158413094
   8.3264356988    4.5937614693    1.6158413094
   3.3305818244    0.1164220636    3.0584593798
   0.0000008172    0.0349149438    0.0168862872
   3.3305361304    0.0349150059    0.0168862872
   9.9917538412    3.2148397596    6.1348331107
   3.3306731266    3.2148397596    6.1348331107
   0.0000465008    0.1164220636    3.0584593798
   6.6611271775    0.1164220636    3.0584593798
   6.6610814835    0.0349149425    0.0168862258
   6.6612184797    3.2148397596    6.1348331107
   1.6654116957    4.7856829990    4.6146987770
   4.9959470572    4.7856829990    4.6146987770
   8.3264824187    4.7856829990    4.6146987770
   1.6653184140    1.5874922559    1.5049528884
   4.9958537755    1.5874922559    1.5049528884
   8.3263891370    1.5874922559    1.5049528884
