Ta1 Nb1 W1
1.0
  -0.0000000000000000    2.3371238900000000    6.8807441799999998
   1.6158218600000001   -0.0000000000000000    6.8807441799999998
   1.6158218600000001    2.3371238900000000   -0.0000000000000000
Ta Nb W
1 1 1
direct
   0.6710551500000000    0.6710551500000000    0.3289448500000000 Ta
   0.9965620600000000    0.9965620600000000    0.0034379400000000 Nb
   0.3323857900000000    0.3323857900000000    0.6676142100000000 W
