Zr1 Al1 Cu2
1.0
   3.7973368800000000    0.0000000000000000    2.1923933500000001
   1.2657792999999999    3.5801641699999989    2.1923933500000001
  -0.0000000000000000   -0.0000000000000000    4.3847877100000003
Zr Al Cu
1 1 2
direct
   0.5000000000000000    0.5000000000000000    0.5000000000000000 Zr
  -0.0000000000000000    0.0000000000000000    0.0000000000000000 Al
   0.2500000000000000    0.2500000000000000    0.2500000000000000 Cu
   0.7500000000000000    0.7500000000000000    0.7500000000000000 Cu
