Al1 Ni1 
1.0
2.8901349310211275e+00 0.0000000000000000e+00 0.0000000000000000e+00 
-1.3765454435527292e-08 2.8901349624411665e+00 0.0000000000000000e+00 
-1.3381595328959668e-08 -1.6252505162885962e-08 2.8901349844109205e+00 
Al Ni 
1 1 
Cartesian
   1.4450674519    1.4450674731    1.4450674922
   2.8901349039    2.8901349462    2.8901349844
