hcp_Al0_Cu15_Nb3_Ni6_Ta0_W0_Zr0         
   1.00000000000000     
     7.8941794163504699    0.0000000000000000    0.0000000000000000
     0.0000000000000000    4.4906929717271691    0.0375646431426001
     0.0000000000000000    0.0725722157532648    8.5269538208399922
   Cu   Nb   Ni
    15     3     6
Direct
  0.5082837074018504  0.1740157720403351  0.2563169318847740
  0.6666669999999968 -0.0044986026860734 -0.0015004732901970
  0.8250492925981529  0.1740157720403351  0.2563169318847740
  0.5087401434723564  0.1675651313819186  0.7419511949939710
  0.6666669999999968 -0.0079906851703106  0.5012572184916982
  0.8245928565276468  0.1675651313819186  0.7419511949939710
 -0.0141410541298291 -0.0006343699266099  0.5055973096818209
  0.1666669999999968  0.1616821100204615  0.7340590394371883
  0.3474740541298323 -0.0006343699266099  0.5055973096818209
  0.5096236060534297  0.4932096648700408  0.0006895512503077
  0.6666669999999968  0.6729128358617409  0.2529488266143827
  0.8237093939465735  0.4932096648700408  0.0006895512503077
 -0.0047544433863052  0.6457640021336609  0.7474709117458607
  0.1666669999999968  0.5324911111934909  0.5027779643770661
  0.3380874433863085  0.6457640021336609  0.7474709117458607
 -0.0017538277485636 -0.0063087397757703 -0.0032282550841902
  0.1666669999999968  0.1794133178268795  0.2630659300457641
  0.3350868277485667 -0.0063087397757703 -0.0032282550841902
 -0.0015225993235921  0.6716511887787298  0.2498052948385203
  0.1666669999999968  0.5068765484448795  0.0039720983396842
  0.3348555993235952  0.6716511887787298  0.2498052948385203
  0.5031253955486706  0.5022622996247509  0.4986519709651475
  0.6666669999999968  0.6640674662547822  0.7489095754319901
  0.8302076044513326  0.5022622996247509  0.4986519709651475
 
  0.00000000E+00  0.00000000E+00  0.00000000E+00
  0.00000000E+00  0.00000000E+00  0.00000000E+00
  0.00000000E+00  0.00000000E+00  0.00000000E+00
  0.00000000E+00  0.00000000E+00  0.00000000E+00
  0.00000000E+00  0.00000000E+00  0.00000000E+00
  0.00000000E+00  0.00000000E+00  0.00000000E+00
  0.00000000E+00  0.00000000E+00  0.00000000E+00
  0.00000000E+00  0.00000000E+00  0.00000000E+00
  0.00000000E+00  0.00000000E+00  0.00000000E+00
  0.00000000E+00  0.00000000E+00  0.00000000E+00
  0.00000000E+00  0.00000000E+00  0.00000000E+00
  0.00000000E+00  0.00000000E+00  0.00000000E+00
  0.00000000E+00  0.00000000E+00  0.00000000E+00
  0.00000000E+00  0.00000000E+00  0.00000000E+00
  0.00000000E+00  0.00000000E+00  0.00000000E+00
  0.00000000E+00  0.00000000E+00  0.00000000E+00
  0.00000000E+00  0.00000000E+00  0.00000000E+00
  0.00000000E+00  0.00000000E+00  0.00000000E+00
  0.00000000E+00  0.00000000E+00  0.00000000E+00
  0.00000000E+00  0.00000000E+00  0.00000000E+00
  0.00000000E+00  0.00000000E+00  0.00000000E+00
  0.00000000E+00  0.00000000E+00  0.00000000E+00
  0.00000000E+00  0.00000000E+00  0.00000000E+00
  0.00000000E+00  0.00000000E+00  0.00000000E+00
