Ni1 Nb3 
1.0
4.5157499705362207e+00 0.0000000000000000e+00 0.0000000000000000e+00 
2.2579097170759548e+00 3.9107535596388106e+00 0.0000000000000000e+00 
2.2579093653158457e+00 1.3036042835670718e+00 3.6870937219887470e+00 
Ni Nb 
1 3 
Cartesian
   4.5157533152    5.2142326991    3.6870937220
   2.2578448476    1.3035620855    0.9217734305
   4.5157484003    2.6071554571    1.8435468610
   6.7736293741    3.9107410071    2.7653202915
