Zr1 Al1 Ni2                             
   1.00000000000000     
     2.9186132999322116    0.0000000000000000    0.0000000000000000
    -0.0000000000000000    2.9186132999322116    0.0000000000000000
     0.0000000000000000    0.0000000000000000    6.6531531463971332
   Zr   Al   Ni
     1     1     2
Direct
 -0.0000000000000000  0.0000000000000000  0.5000000000000000
 -0.0000000000000000  0.0000000000000000 -0.0000000000000000
  0.5000000000000000  0.5000000000000000  0.2124604789929768
  0.5000000000000000  0.5000000000000000  0.7875395210070232
 
  0.00000000E+00  0.00000000E+00  0.00000000E+00
  0.00000000E+00  0.00000000E+00  0.00000000E+00
  0.00000000E+00  0.00000000E+00  0.00000000E+00
  0.00000000E+00  0.00000000E+00  0.00000000E+00
