Ni6 Zr2 
1.0
5.5694047139202727e+00 0.0000000000000000e+00 0.0000000000000000e+00 
-2.7847023567740998e+00 4.8232459662219229e+00 0.0000000000000000e+00 
-8.2308616796423126e-16 1.6177576840232909e-15 4.1009751176078435e+00 
Ni Zr 
6 2 
Cartesian
   0.0000000001    1.4271116630    3.0757313382
   4.3334897598    0.7135558315    1.0252437794
   2.7847023571    3.3961343032    1.0252437794
  -1.5487874026    4.1096901347    3.0757313382
   1.5487874029    4.1096901347    3.0757313382
   1.2359149542    0.7135558315    1.0252437794
   2.7847051417    1.6077470477    3.0757313382
  -0.0000027846    3.2154989186    1.0252437794
