Al4 Ni4 Nb16 W8 
1.0
8.7913163873024605e+00 0.0000000000000000e+00 0.0000000000000000e+00 
0.0000000000000000e+00 6.5161761563089282e+00 0.0000000000000000e+00 
0.0000000000000000e+00 0.0000000000000000e+00 9.0471110396285361e+00 
Al Ni Nb W 
4 4 16 8 
Cartesian
   4.2754369421    3.2026940646    0.0543647235
   4.2754369421    4.9425196146    2.2074136697
   6.7137085421    4.9425196146    0.0543654473
   6.7137085421    3.2026940646    2.2074136697
   2.2364757237    1.5951664392    0.0852750831
   2.2364757237    0.0338768179    2.1764996912
   8.7526697605    0.0338769482    0.0852758069
   8.7526697605    1.5951664392    2.1764996912
   4.3792096407    3.2328835088    4.4208255740
   4.3876053478    0.0219535839    4.4576020803
   0.0116499008    3.2750757494    4.3821129858
   0.0133248224    6.5044014260    4.4278370850
   2.1845014612    1.6408187694    4.4278370850
   2.1861806026    4.8701444460    4.3821129858
   6.6015401363    1.6070910416    4.4576020803
   6.6099358434    4.9123366866    4.4208255740
   4.3876053478    1.6070910416    6.8512867192
   2.1861806026    3.2750757494    6.9267758137
   0.0133249982    1.6408122532    6.8810517145
   2.1845014612    6.5044079422    6.8810517145
   4.3792096407    4.9123366866    6.8880632256
   0.0116484942    4.8701444460    6.9267758137
   6.6099358434    3.2328835088    6.8880632256
   6.6015401363    0.0219549523    6.8512867192
   4.3877811742    1.5963719318    2.1981313337
   2.1605363327    3.1709211897    2.1238545521
   4.3877723829    0.0326765382    0.0636400027
   2.1605363327    4.9742990057    0.1379286361
   0.0372917971    3.1709211897    0.1379286361
   0.0372939949    4.9742990057    2.1238455050
   6.6013731013    1.5963654157    0.0636470595
   6.6013731013    0.0326759518    2.1981313337
