Ni6 Cu6 Zr3 Nb3 Ta6 
1.0
8.7860163642321041e+00 0.0000000000000000e+00 0.0000000000000000e+00 
-1.4447551422663230e+00 5.1689155041063906e+00 0.0000000000000000e+00 
9.4178864940359694e-02 1.5051361627630919e-01 8.2018751317637300e+00 
Ni Cu Zr Nb Ta 
6 6 3 3 6 
Cartesian
   1.6654732925    1.2845041489    2.0422423022
   0.6588178997    5.0199265127    4.0630449028
   6.8438949372    4.9223068597    4.0777180574
   1.3345815011    4.9395541324    8.2009729255
   2.3970084653    1.1809859466    6.1185168295
   6.5283516790    5.0362527964    8.1352677038
   3.5648313651    2.4013806846    4.3126525687
   4.9074130194    1.3448957956    6.0136476541
   5.2267610182    3.8437915315    6.0476772340
   6.4930600593    2.4847182571    4.2793693594
   4.2636017463    5.0978851538    4.2056263001
   7.4379397037    1.0954172493    6.0437403340
   2.2256177336    3.6804602930    2.3491728734
  -0.6742432853    3.9545481391    1.8464471390
   0.6424843512    2.0192029713    7.8406235416
   4.4339196069    1.1202996752    2.2014735060
   7.4067256278    1.1302354592    2.1409764750
   4.0504652918    5.0876140420    8.1483825022
   5.1752632025    3.6488283454    2.2149163793
   0.6263490391    2.0776465258    4.4698333037
   2.2183651782    4.0518408359    5.9034882692
   3.5336688164    2.4268475016    8.0796507886
  -0.7190095697    4.2623206603    6.1948188739
   6.3769510706    2.5110889483    8.0978753551
