Al6 W3 
1.0
4.8366456194910903e+00 0.0000000000000000e+00 0.0000000000000000e+00 
-2.4183139973020067e+00 4.1886596553291700e+00 0.0000000000000000e+00 
1.9784691015568603e-08 -9.2447173100509412e-09 6.8484203811073314e+00 
Al W 
6 3 
Cartesian
  -1.2057998482    3.4886131543    1.1414056797
   1.2125171079    0.7000464918    5.7070147014
   2.4183286865    2.7885666516    3.4242101906
   3.6241314770    0.7000464980    1.1414056797
   1.2058145473    3.4886131481    5.7070147014
   0.0000029555    1.4000929944    3.4242101906
   2.4183228018    0.0000000262    3.4242101906
   3.6274886373    2.0943298200    5.7070147014
   1.2091658144    2.0943298261    1.1414056797
