Al4 Cu15 
1.0
3.6925655220762681e+00 0.0000000000000000e+00 0.0000000000000000e+00 
-9.9159753716773793e-16 3.6925655219891635e+00 0.0000000000000000e+00 
-4.9980061230191342e-16 -3.2076755715082934e-16 1.7889455864696586e+01 
Al Cu 
4 15 
Cartesian
   0.0000000000    3.6925655220    3.4148287827
   0.0000000000    3.6925655220    7.1045111654
   3.6925655221    3.6925655220   10.7849446993
   0.0000000000    3.6925655220   14.4746270820
   1.8462827610    1.8462827610   17.8894558647
   1.8462827610    1.8462827610    3.4216446654
   1.8462827610    3.6925655220    1.6056448548
   1.8462827610    3.6925655220    5.2608775123
   3.6925655221    1.8462827610    1.6056448548
   3.6925655221    1.8462827610    5.2608775123
   1.8462827610    1.8462827610    7.1067294579
   1.8462827610    1.8462827610   10.7827264068
   1.8462827610    3.6925655220    8.9447279323
   3.6925655221    1.8462827610    8.9447279323
   1.8462827610    1.8462827610   14.4678111993
   1.8462827610    3.6925655220   12.6285783524
   1.8462827610    3.6925655220   16.2838056430
   3.6925655221    1.8462827610   12.6285783524
   3.6925655221    1.8462827610   16.2838056430
