Al2 Zr4 
1.0
5.3710312478234119e+00 0.0000000000000000e+00 0.0000000000000000e+00 
2.6854829653341783e+00 4.8456003247058543e+00 0.0000000000000000e+00 
2.6854827053103643e+00 3.0525032415551088e-07 4.8456002998535368e+00 
Al Zr 
2 4 
Cartesian
   4.0286470667    4.8455906335    0.0000062467
   6.7133507727    0.0000102571    4.8455954543
   2.6854849776    2.4227856836    0.9215556474
   5.3710005207    0.9215558048    2.4228146867
   5.3709963977    3.9240448252    2.4227856131
   8.0565119409    2.4228149464    3.9240446524
