Cu4 Ta24 W4 
1.0
9.1888688669541949e+00 0.0000000000000000e+00 0.0000000000000000e+00 
0.0000000000000000e+00 6.5815351159527449e+00 0.0000000000000000e+00 
0.0000000000000000e+00 0.0000000000000000e+00 9.1171101308390217e+00 
Cu Ta W 
4 24 4 
Cartesian
   2.3442274699    0.1629107643    2.2906921546
   9.1418586138    1.4824710403    2.2906921546
   2.3442274699    1.4824710403    9.1056955090
   9.1418586138    0.1629107643    9.1056955090
   4.5877725035    0.0133518945    4.5264810720
   2.2569332156    3.1240046212    2.1860186132
   4.5493078985    3.2540360105    0.0645920813
   0.0402864821    5.1029142737    2.1860186132
   4.5493078985    4.9728828844    2.2146828074
   4.5799527761    3.2718653891    4.4948173485
   0.0402866659    3.1240046212    0.0932552727
   2.2737120902    4.9173084019    4.4609928699
   2.2569332156    5.1029142737    0.0932552727
   0.0235077913    3.3096104930    4.4610019870
   6.8983135801    1.6320298442    4.5264810720
   6.9367781852    3.2540360105    2.2146828074
   6.9061333075    4.9550600874    4.4948173485
   6.9367781852    4.9728828844    0.0645913519
   2.2957837532    1.6522614832    4.5794970674
   0.0014337576    6.5746574118    4.5794970674
   4.5877725035    1.6320298442    6.8699065916
   0.0014336933    1.6522614832    6.8168905962
   2.2737120902    3.3096104930    6.9353947936
   2.2957837532    6.5746574118    6.8168905962
   0.0235078832    4.9173084019    6.9353947936
   4.5799527761    4.9550535058    6.9015703151
   6.8983135801    0.0133519603    6.8699065916
   6.9061333075    3.2718588076    6.9015703151
   4.6262830530    0.0458920571    0.0380715020
   4.6262830530    1.5994907346    2.2412044808
   6.8598030307    1.5994907346    0.0380717755
   6.8598030307    0.0458920571    2.2412044808
