Al12 Nb4 Ta8 W8 
1.0
8.8879724103891302e+00 0.0000000000000000e+00 0.0000000000000000e+00 
0.0000000000000000e+00 8.8240843106402060e+00 0.0000000000000000e+00 
0.0000000000000000e+00 0.0000000000000000e+00 6.7814945971226921e+00 
Al Nb Ta W 
12 4 8 8 
Cartesian
   2.2599447448    4.3911555478    5.0209643478
   8.8500207682    4.3911555478    3.4559038987
   4.5168586910    4.4028915799    3.2860206775
   6.5931068220    4.4028915799    5.1908475689
   2.2599447448    6.6389498405    3.4559038987
   4.3634522872    4.4169042258    0.0712952090
   4.3634522872    6.6132011625    1.6240797966
   8.8500207682    6.6389498405    5.0209643478
   4.5168586910    6.6272138084    5.1908475689
   6.7465132258    6.6132011625    0.0712958871
   6.7465132258    4.4169042258    1.6240797966
   6.5931068220    6.6272138084    3.2860206775
   6.6341159267    2.2746812777    3.3607866554
   4.4758495863    2.2746812777    5.1160815910
   4.4758495863    8.7554241106    3.3607866554
   6.6341159267    8.7554241106    5.1160815910
   2.2574916644    2.3013476605    0.0513414749
   2.2519011298    2.2513415747    3.3276183654
   8.8524738486    2.3013476605    1.6440309537
   8.8580643832    2.2513415747    5.1492498810
   2.2574916644    8.7287577278    1.6440309537
   2.2519011298    8.7787638136    5.1492498810
   8.8524738486    8.7287577278    0.0513414749
   8.8580643832    8.7787638136    3.3276183654
   6.6395287019    2.1997648019    0.0299202254
   4.4704368111    2.1997648019    1.6654536951
   4.4704368111    0.0062529667    0.0299201576
   6.6395287019    0.0062529138    1.6654536951
   2.2024928911    4.5362940865    1.7526298082
   2.2024928911    6.4938113018    6.7242384382
   0.0195007447    6.4938113018    1.7526298082
   0.0195007447    4.5362940865    6.7242384382
