Zr12 Cu32
1.0
   7.9498740000000003    0.0000000000000000    0.0000000000000000
   0.0000000000000000    8.2291559999999997    0.0000000000000000
   0.0000000000000000    0.0000000000000000   10.0844909999999999
Zr Cu
12 32
direct
   0.5628190000000000    0.4467180000000000    0.3602630000000000 Zr
   0.0628190000000000    0.0532819999999990    0.1397370000000000 Zr
   0.4371810000000000    0.9467179999999999    0.6397370000000000 Zr
   0.9371809999999990    0.5532819999999991    0.8602630000000000 Zr
   0.4371810000000000    0.5532819999999991    0.6397370000000000 Zr
   0.9371809999999990    0.9467179999999999    0.8602630000000000 Zr
   0.5628190000000000    0.0532819999999990    0.3602630000000000 Zr
   0.0628190000000000    0.4467180000000000    0.1397370000000000 Zr
   0.9610190000000000    0.2500000000000000    0.4537549999999990 Zr
   0.4610189999999990    0.2500000000000000    0.0462449999999990 Zr
   0.0389809999999990    0.7500000000000000    0.5462450000000000 Zr
   0.5389809999999990    0.7500000000000000    0.9537549999999990 Zr
   0.8791249999999990    0.5767709999999990    0.3400439999999990 Cu
   0.3791250000000000    0.9232290000000000    0.1599560000000000 Cu
   0.1208750000000000    0.0767709999999990    0.6599560000000000 Cu
   0.6208750000000000    0.4232289999999990    0.8400440000000000 Cu
   0.1208750000000000    0.4232289999999990    0.6599560000000000 Cu
   0.6208750000000000    0.0767709999999990    0.8400440000000000 Cu
   0.8791249999999990    0.9232290000000000    0.3400439999999990 Cu
   0.3791250000000000    0.5767709999999990    0.1599560000000000 Cu
   0.6990100000000000    0.4990810000000000    0.0939330000000000 Cu
   0.1990100000000000    0.0009190000000000    0.4060669999999990 Cu
   0.3009900000000000    0.9990810000000000    0.9060670000000000 Cu
   0.8009900000000001    0.5009190000000000    0.5939329999999990 Cu
   0.3009900000000000    0.5009190000000000    0.9060670000000000 Cu
   0.8009900000000001    0.9990810000000000    0.5939329999999990 Cu
   0.6990100000000000    0.0009190000000000    0.0939330000000000 Cu
   0.1990100000000000    0.4990810000000000    0.4060669999999990 Cu
   0.7848860000000000    0.2500000000000000    0.2261429999999990 Cu
   0.2848860000000000    0.2500000000000000    0.2738569999999990 Cu
   0.2151140000000000    0.7500000000000000    0.7738570000000000 Cu
   0.7151139999999990    0.7500000000000000    0.7261430000000000 Cu
   0.6166420000000000    0.2500000000000000    0.5978270000000000 Cu
   0.1166420000000000    0.2500000000000000    0.9021730000000000 Cu
   0.3833580000000000    0.7500000000000000    0.4021730000000000 Cu
   0.8833580000000000    0.7500000000000000    0.0978270000000000 Cu
   0.8692749999999990    0.2500000000000000    0.7349300000000001 Cu
   0.3692749999999990    0.2500000000000000    0.7650700000000000 Cu
   0.1307250000000000    0.7500000000000000    0.2650700000000000 Cu
   0.6307250000000000    0.7500000000000000    0.2349300000000000 Cu
   0.8229259999999990    0.2500000000000000    0.9830570000000000 Cu
   0.3229260000000000    0.2500000000000000    0.5169429999999990 Cu
   0.1770739999999990    0.7500000000000000    0.0169430000000000 Cu
   0.6770740000000000    0.7500000000000000    0.4830569999999990 Cu
