Nb1 
1.0
2.8792584086565567e+00 0.0000000000000000e+00 0.0000000000000000e+00 
-9.5975280493216564e-01 2.7145908612209526e+00 0.0000000000000000e+00 
-9.5975280135019803e-01 -1.3572954297491036e+00 2.3509046458648286e+00 
Nb 
1 
Cartesian
   0.0000000000   -0.0000000000    0.0000000000
