Ni1 
1.0
2.4196843788484697e+00 0.0000000000000000e+00 0.0000000000000000e+00 
-8.0655783111725043e-01 2.2813003128059277e+00 0.0000000000000000e+00 
-8.0655782632046846e-01 -1.1406450198750155e+00 1.9756640184851411e+00 
Ni 
1 
Cartesian
   1.6130708948    2.2812318737    0.0000000001
