Nb7 
1.0
2.8681877401074583e+00 0.0000000000000000e+00 0.0000000000000000e+00 
-6.9866029531339812e-03 4.6752622304904117e+00 0.0000000000000000e+00 
9.0296962862358332e-01 2.3158832096986393e+00 9.4905131811041823e+00 
Nb 
7 
Cartesian
   1.4058302846    4.6658972939    4.0673587245
   0.4603453282    2.3313706815    2.7115724830
   2.3760632299    4.6721062997    1.3557862415
   2.3334069411    4.6533600413    9.4905131811
   2.3583033345    2.3251546411    5.4231544566
   3.3037888785    4.6596719029    6.7789406981
   1.3880704101    2.3189316095    8.1347269396
