Nb3 Ni1                                 
   1.00000000000000     
    -0.0000000000000000    3.1959608351060296    3.1959608351060296
     3.1959608351060296   -0.0000000000000000    3.1959608351060296
     3.1959608351060296    3.1959608351060296   -0.0000000000000000
   Nb   Ni
     3     1
Direct
  0.5000000000000000  0.5000000000000000  0.5000000000000000
  0.7500000000000000  0.7500000000000000  0.7500000000000000
  0.2500000000000000  0.2500000000000000  0.2500000000000000
 -0.0000000000000000  0.0000000000000000  0.0000000000000000
 
  0.00000000E+00  0.00000000E+00  0.00000000E+00
  0.00000000E+00  0.00000000E+00  0.00000000E+00
  0.00000000E+00  0.00000000E+00  0.00000000E+00
  0.00000000E+00  0.00000000E+00  0.00000000E+00
