fcc_Al0_Cu0_Nb0_Ni8_Ta12_W8_Zr4         
   1.00000000000000     
     9.0739910907454089    0.0000000000000000   -0.0000000000000000
    -0.0000000000000000    9.0739910907454089   -0.0000000000000001
    -0.0000000000000000   -0.0000000000000002    6.3853628105337146
   Ni   Ta   W    Zr
     8    12     8     4
Direct
  0.0042537105517575  0.4994556780435602  0.0079346520726315
  0.2457462894482425  0.7505443219564398  0.0079346520726315
  0.0042537105517575  0.7505443219564398  0.2420653479273685
  0.2457462894482425  0.4994556780435602  0.2420653479273685
  0.4994556780435602  0.0042537105517575  0.0079346520726315
  0.7505443219564398  0.2457462894482425  0.0079346520726315
  0.4994556780435602  0.2457462894482425  0.2420653479273685
  0.7505443219564398  0.0042537105517575  0.2420653479273685
  0.0063799747333311  0.5032069007166058  0.4742910127811773
  0.2436200252666690  0.7467930992833943  0.4742910127811773
  0.0063799747333311  0.7467930992833943  0.7757089872188226
  0.2436200252666690  0.5032069007166058  0.7757089872188225
  0.5032069007166058  0.0063799747333311  0.4742910127811773
  0.7467930992833943  0.2436200252666690  0.4742910127811773
  0.5032069007166058  0.2436200252666690  0.7757089872188225
  0.7467930992833943  0.0063799747333311  0.7757089872188226
  0.0017007835088198  0.0017007835088198  0.0051870432219458
  0.2482992164911802  0.2482992164911802  0.0051870432219458
  0.0017007835088198  0.2482992164911802  0.2448129567780543
  0.2482992164911802  0.0017007835088198  0.2448129567780543
  0.4990159343786874  0.4990159343786874  0.0115922872265970
  0.7509840656213126  0.7509840656213126  0.0115922872265970
  0.4990159343786874  0.7509840656213126  0.2384077127734031
  0.7509840656213126  0.4990159343786874  0.2384077127734031
 -0.0000099992941536 -0.0000099992941536  0.5046261982232171
  0.2500099992941537  0.2500099992941537  0.5046261982232171
 -0.0000099992941536  0.2500099992941537  0.7453738017767824
  0.2500099992941537 -0.0000099992941536  0.7453738017767824
  0.4907372866202218  0.4907372866202219  0.4874955165254179
  0.7592627133797781  0.7592627133797781  0.4874955165254179
  0.4907372866202219  0.7592627133797781  0.7625044834745827
  0.7592627133797781  0.4907372866202219  0.7625044834745827
 
  0.00000000E+00  0.00000000E+00  0.00000000E+00
  0.00000000E+00  0.00000000E+00  0.00000000E+00
  0.00000000E+00  0.00000000E+00  0.00000000E+00
  0.00000000E+00  0.00000000E+00  0.00000000E+00
  0.00000000E+00  0.00000000E+00  0.00000000E+00
  0.00000000E+00  0.00000000E+00  0.00000000E+00
  0.00000000E+00  0.00000000E+00  0.00000000E+00
  0.00000000E+00  0.00000000E+00  0.00000000E+00
  0.00000000E+00  0.00000000E+00  0.00000000E+00
  0.00000000E+00  0.00000000E+00  0.00000000E+00
  0.00000000E+00  0.00000000E+00  0.00000000E+00
  0.00000000E+00  0.00000000E+00  0.00000000E+00
  0.00000000E+00  0.00000000E+00  0.00000000E+00
  0.00000000E+00  0.00000000E+00  0.00000000E+00
  0.00000000E+00  0.00000000E+00  0.00000000E+00
  0.00000000E+00  0.00000000E+00  0.00000000E+00
  0.00000000E+00  0.00000000E+00  0.00000000E+00
  0.00000000E+00  0.00000000E+00  0.00000000E+00
  0.00000000E+00  0.00000000E+00  0.00000000E+00
  0.00000000E+00  0.00000000E+00  0.00000000E+00
  0.00000000E+00  0.00000000E+00  0.00000000E+00
  0.00000000E+00  0.00000000E+00  0.00000000E+00
  0.00000000E+00  0.00000000E+00  0.00000000E+00
  0.00000000E+00  0.00000000E+00  0.00000000E+00
  0.00000000E+00  0.00000000E+00  0.00000000E+00
  0.00000000E+00  0.00000000E+00  0.00000000E+00
  0.00000000E+00  0.00000000E+00  0.00000000E+00
  0.00000000E+00  0.00000000E+00  0.00000000E+00
  0.00000000E+00  0.00000000E+00  0.00000000E+00
  0.00000000E+00  0.00000000E+00  0.00000000E+00
  0.00000000E+00  0.00000000E+00  0.00000000E+00
  0.00000000E+00  0.00000000E+00  0.00000000E+00
