Ni6 Ta2 
1.0
4.2446189547785709e+00 0.0000000000000000e+00 0.0000000000000000e+00 
0.0000000000000000e+00 4.5322432260408787e+00 0.0000000000000000e+00 
0.0000000000000000e+00 0.0000000000000000e+00 5.1602752454527030e+00 
Ni Ta 
6 2 
Cartesian
   3.1834642161    1.4607646530    1.2900688114
   1.0611547387    3.0714740408    3.8702064341
   1.0611547387    0.7214923314    2.5806897722
   3.1834642161    3.8107463624    2.5795854733
   1.0611547387    0.7214968636    5.1597230960
   3.1834642161    3.8107508946    0.0005525881
   1.0611547387    2.9419379972    1.2900688114
   3.1834642161    1.5903052289    3.8702064341
