Nb1 Ni3                                 
   1.00000000000000     
     0.0000000000000000    2.9293979999999999    2.9293979999999999
     2.9293979999999999    0.0000000000000000    2.9293979999999999
     2.9293979999999999    2.9293979999999999    0.0000000000000000
   Nb   Ni
     1     3
Direct
  0.0000000000000000  0.0000000000000000  0.0000000000000000
  0.5000000000000000  0.5000000000000000  0.5000000000000000
  0.7500000000000000  0.7500000000000000  0.7500000000000000
  0.2500000000000000  0.2500000000000000  0.2500000000000000
 
  0.00000000E+00  0.00000000E+00  0.00000000E+00
  0.00000000E+00  0.00000000E+00  0.00000000E+00
  0.00000000E+00  0.00000000E+00  0.00000000E+00
  0.00000000E+00  0.00000000E+00  0.00000000E+00
