fcc_Al12_Cu4_Nb0_Ni0_Ta8_W4_Zr4         
   1.00000000000000     
     9.4785842949247474    0.0000000000000000    0.0000000000000000
     0.0000000000000000    6.1531393812164046    0.0000000000000000
     0.0000000000000000    0.0000000000000000    9.3487187721092688
   Al   Cu   Ta   W    Zr
    12     4     8     4     4
Direct
  0.5096187198881371  0.4873408502610126  0.0100283165152758
  0.7403812801118627  0.7626591497389874  0.0100283165152758
  0.5096187198881371  0.7626591497389874  0.2399716834847241
  0.7403812801118627  0.4873408502610126  0.2399716834847241
  0.5013806973158467  0.5028785339475738  0.4983907875090384
  0.7486193026841533  0.7471214660524261  0.4983907875090384
  0.5013806973158467  0.7471214660524261  0.7516092124909615
  0.7486193026841533  0.5028785339475739  0.7516092124909615
  0.0256300930205963  0.4519843209575404  0.5163397488423007
  0.2243699069794036  0.7980156790424598  0.5163397488423007
  0.0256300930205963  0.7980156790424598  0.7336602511576993
  0.2243699069794037  0.4519843209575404  0.7336602511576993
 -0.0137825572138506  0.0061879802532684  0.5080236494349164
  0.2637825572138506  0.2438120197467317  0.5080236494349164
 -0.0137825572138506  0.2438120197467317  0.7419763505650836
  0.2637825572138507  0.0061879802532684  0.7419763505650836
  0.4957448373217294  0.0017455655081887  0.4963859481901124
  0.7542551626782706  0.2482544344918113  0.4963859481901124
  0.4957448373217294  0.2482544344918113  0.7536140518098874
  0.7542551626782705  0.0017455655081887  0.7536140518098874
 -0.0042629367425786  0.0036487023606948 -0.0027263757382827
  0.2542629367425784  0.2463512976393052 -0.0027263757382827
 -0.0042629367425786  0.2463512976393052  0.2527263757382825
  0.2542629367425784  0.0036487023606948  0.2527263757382825
  0.5058688791121398  0.0136572408181758 -0.0024839509505079
  0.7441311208878602  0.2363427591818241 -0.0024839509505079
  0.5058688791121397  0.2363427591818241  0.2524839509505077
  0.7441311208878602  0.0136572408181758  0.2524839509505077
 -0.0124247856783396  0.5063933042279088 -0.0195207378463730
  0.2624247856783394  0.7436066957720914 -0.0195207378463730
 -0.0124247856783396  0.7436066957720914  0.2695207378463731
  0.2624247856783394  0.5063933042279088  0.2695207378463731
 
  0.00000000E+00  0.00000000E+00  0.00000000E+00
  0.00000000E+00  0.00000000E+00  0.00000000E+00
  0.00000000E+00  0.00000000E+00  0.00000000E+00
  0.00000000E+00  0.00000000E+00  0.00000000E+00
  0.00000000E+00  0.00000000E+00  0.00000000E+00
  0.00000000E+00  0.00000000E+00  0.00000000E+00
  0.00000000E+00  0.00000000E+00  0.00000000E+00
  0.00000000E+00  0.00000000E+00  0.00000000E+00
  0.00000000E+00  0.00000000E+00  0.00000000E+00
  0.00000000E+00  0.00000000E+00  0.00000000E+00
  0.00000000E+00  0.00000000E+00  0.00000000E+00
  0.00000000E+00  0.00000000E+00  0.00000000E+00
  0.00000000E+00  0.00000000E+00  0.00000000E+00
  0.00000000E+00  0.00000000E+00  0.00000000E+00
  0.00000000E+00  0.00000000E+00  0.00000000E+00
  0.00000000E+00  0.00000000E+00  0.00000000E+00
  0.00000000E+00  0.00000000E+00  0.00000000E+00
  0.00000000E+00  0.00000000E+00  0.00000000E+00
  0.00000000E+00  0.00000000E+00  0.00000000E+00
  0.00000000E+00  0.00000000E+00  0.00000000E+00
  0.00000000E+00  0.00000000E+00  0.00000000E+00
  0.00000000E+00  0.00000000E+00  0.00000000E+00
  0.00000000E+00  0.00000000E+00  0.00000000E+00
  0.00000000E+00  0.00000000E+00  0.00000000E+00
  0.00000000E+00  0.00000000E+00  0.00000000E+00
  0.00000000E+00  0.00000000E+00  0.00000000E+00
  0.00000000E+00  0.00000000E+00  0.00000000E+00
  0.00000000E+00  0.00000000E+00  0.00000000E+00
  0.00000000E+00  0.00000000E+00  0.00000000E+00
  0.00000000E+00  0.00000000E+00  0.00000000E+00
  0.00000000E+00  0.00000000E+00  0.00000000E+00
  0.00000000E+00  0.00000000E+00  0.00000000E+00
