Zr1 Nb1 
1.0
3.0085581821249550e+00 0.0000000000000000e+00 0.0000000000000000e+00 
-8.8862071656249331e-01 2.8752894522830950e+00 0.0000000000000000e+00 
6.5241176026788398e-09 -1.3248735368001835e-08 4.6690817227240347e+00 
Zr Nb 
1 1 
Cartesian
   1.0599283935    1.4376389689    2.3345408614
   3.0084989000    0.0000068579    0.0000000019
