Al2 
1.0
2.8521844932082132e+00 0.0000000000000000e+00 0.0000000000000000e+00 
-1.4260925036500611e+00 2.4700643247434275e+00 0.0000000000000000e+00 
0.0000000000000000e+00 0.0000000000000000e+00 4.7250995941485190e+00 
Al 
2 
Cartesian
   1.4260206849    2.4700643247    4.7250995941
   1.4260222824    0.8233539516    2.3625497971
