Al4 Ni15 
1.0
3.5649008839037304e+00 0.0000000000000000e+00 0.0000000000000000e+00 
-6.4929881621669804e-08 3.5649007340001941e+00 0.0000000000000000e+00 
3.3717375924638841e-08 6.6775301266004388e-09 1.7257981538870908e+01 
Al Ni 
4 15 
Cartesian
   0.0000002608    0.0000000088    3.2818295434
   3.5649008973    0.0000000239    6.8482259443
   0.0000003582    0.0000000214   10.4097555945
  -0.0000000300    3.5649007394   13.9761519955
   1.7824504159    1.7824503683    3.3033675043
   1.7824504450    0.0000000113    1.5351785704
   0.0000000120    1.7824503676    1.5351785704
   1.7824504229    1.7824503697    6.8504694819
   1.7824503869    3.5649007360    5.0711888433
   3.5649008613    1.7824503690    5.0711888433
   1.7824503939    3.5649007373    8.6289907694
   1.7824504298    1.7824503710   10.4075120569
   1.7824504008    3.5649007387   12.1867926956
   0.0000000043    1.7824503703    8.6289907694
   3.5649008752    1.7824503717   12.1867926956
   1.7824504432    1.7824503737   17.2579815389
   1.7824504368    1.7824503724   13.9546140345
   1.7824504727    0.0000000392   15.7227977911
   0.0000000182    1.7824503731   15.7227977911
