Al4 Cu4 Ta4 
1.0
5.0808621996372914e+00 0.0000000000000000e+00 0.0000000000000000e+00 
-2.5404658218664178e+00 4.3753375566447330e+00 0.0000000000000000e+00 
-7.0915082436174653e-07 1.4699462905648368e-07 7.9225467578339401e+00 
Al Cu Ta 
4 4 4 
Cartesian
  -0.0000098059    1.4887393413    5.9419100684
  -1.2393886979    3.6155252975    5.9419100684
   1.2393277092    3.6155209221    5.9419100684
   2.5404078299    2.9099145362    1.9806366895
   3.7643892889    0.7680205394    1.9806366895
   1.3164603663    0.7680205394    1.9806366895
   0.0000018200    0.0107921500    3.9701703989
   0.0000015940    0.0107920919    7.9136497378
   2.5404192510    1.4422688544    4.5039757544
  -0.0000258801    2.9024108591    3.4243544626
  -0.0000256216    2.9024108055    0.5369173318
   2.5404189936    1.4422689077    7.3798443824
