Ta1 Ni3
1.0
   3.3016626200000001    0.0029630000000000   -1.4461913499999990
  -0.6290214800000000    3.2411916399999998   -1.4461913499999990
  -0.0012413400000000   -0.0015075700000000    4.4982342500000003
Ta Ni
1 3
direct
   0.0000000000000000    0.0000000000000000    0.0000000000000000 Ta
   0.5000000000000000    0.5000000000000000    0.0000000000000000 Ni
   0.7500140200000001    0.2499859800000000    0.5000000000000000 Ni
   0.2499859800000000    0.7500140200000001    0.5000000000000000 Ni
