Nb7                                     
   1.00000000000000     
     2.8637594888422040   -0.0511035128476885    0.0340459221832451
     0.0786227199358560    4.6686465949097906    0.1045955772210732
     0.8682389035765606    2.1034394989546281    9.5283774079620915
   Nb
     7
Direct
  0.6427553417748851  0.2151009391642804  0.5714146470628858
  0.3572446582251148  0.7848990608357197  0.4285853529371145
  0.9283301786939276  0.6446774664878130  0.7142522271184133
  0.0716698213060723  0.3553225335121871  0.2857477728815867
  0.2141032683381380  0.0728705089414492  0.8571163684223850
  0.7858967316618620  0.9271294910585506  0.1428836315776150
  0.5000000000000000  0.5000000000000000 -0.0000000000000000
 
  0.00000000E+00  0.00000000E+00  0.00000000E+00
  0.00000000E+00  0.00000000E+00  0.00000000E+00
  0.00000000E+00  0.00000000E+00  0.00000000E+00
  0.00000000E+00  0.00000000E+00  0.00000000E+00
  0.00000000E+00  0.00000000E+00  0.00000000E+00
  0.00000000E+00  0.00000000E+00  0.00000000E+00
  0.00000000E+00  0.00000000E+00  0.00000000E+00
