Cu1 Zr1 
1.0
3.2737178955035633e+00 0.0000000000000000e+00 0.0000000000000000e+00 
0.0000000000000000e+00 3.2737178955035633e+00 0.0000000000000000e+00 
0.0000000000000000e+00 0.0000000000000000e+00 3.2737178955035633e+00 
Cu Zr 
1 1 
Cartesian
   0.0000000001    3.2737178955    0.0000000008
   1.6368589478    1.6368589478    1.6368589478
