Zr6 Ta2 
1.0
6.3860353183967300e+00 0.0000000000000000e+00 0.0000000000000000e+00 
-3.1930159011179544e+00 5.5304660507427750e+00 0.0000000000000000e+00 
0.0000000000000000e+00 0.0000000000000000e+00 5.0447349538206421e+00 
Zr Ta 
6 2 
Cartesian
   0.0000037961    1.8971987264    1.2611837385
   1.5499975979    4.5818639223    1.2611837385
  -1.5499946848    4.5818639223    1.2611837385
   3.1930156212    3.6332673244    3.7835512154
   1.6430218194    0.9486021284    3.7835512154
   4.7430077161    0.9486021284    3.7835512154
  -0.0000020210    3.6869792107    3.7835512154
   3.1930214382    1.8434868401    1.2611837385
