Al3 Ni1 Zr2 
1.0
5.1091551340134158e+00 0.0000000000000000e+00 0.0000000000000000e+00 
2.3817779754838857e+00 4.5200684016538304e+00 0.0000000000000000e+00 
2.3817609963806268e+00 1.4371543734756205e+00 4.2855153898835727e+00 
Al Ni Zr 
3 1 2 
Cartesian
   8.6814326077    3.6969792140    4.2855111044
   4.9361339700    4.5199408693    0.0000375421
   8.6815949508    5.2386184680    2.1427576949
   7.4906875731    1.4372455019    4.2854596782
   6.1525941658    3.7125089672    2.6707717606
   3.7197835928    2.2445537512    1.6147650568
