Al1 Ni2 Zr1 
1.0
2.9363056958540992e+00 0.0000000000000000e+00 0.0000000000000000e+00 
1.2538013184348069e-17 2.9363056958540983e+00 0.0000000000000000e+00 
9.5164228835055151e-18 8.2751503334830485e-18 6.5909850208390770e+00 
Al Ni Zr 
1 2 1 
Cartesian
   2.9363056959    2.9363056959    6.5909850208
   1.4681528479    1.4681528479    1.3986531583
   1.4681528479    1.4681528479    5.1923318625
   0.0000000000    0.0000000000    3.2954925104
