Al1 Cu3                                 
   1.00000000000000     
     3.5895125974029902    0.0000000135609210    2.0724058799838749
     1.1965048918520800    3.3842241104908291    2.0724058799838732
     0.0000000085589080    0.0000000060520596    4.1448107303188246
   Al   Cu
     1     3
Direct
 -0.0000000000000000 -0.0000000000000000 -0.0000000000000000
  0.5000000000000000  0.5000000000000000  0.5000000000000000
  0.2500000000000000  0.2500000000000000  0.2500000000000000
  0.7500000000000000  0.7500000000000000  0.7500000000000000
 
  0.00000000E+00  0.00000000E+00  0.00000000E+00
  0.00000000E+00  0.00000000E+00  0.00000000E+00
  0.00000000E+00  0.00000000E+00  0.00000000E+00
  0.00000000E+00  0.00000000E+00  0.00000000E+00
