bcc_Al0_Cu3_Nb12_Ni0_Ta9_W0_Zr0         
   1.00000000000000     
    10.0691926681053037    0.0000000000000000    0.0000000000000000
     0.0000000000000000    6.4667024645945075    0.0176603481565345
     0.0000000000000000    0.0176603481565345    6.4667024645945075
   Cu   Nb   Ta
     3    12     9
Direct
  0.1666666666666643  0.2512891490076132  0.2512891490076132
  0.5000000000000000  0.2512891490076132  0.2512891490076132
  0.8333333333333357  0.2512891490076132  0.2512891490076132
  0.0000000000000000 -0.0008860460809315 -0.0008860460809315
  0.3333333333333357 -0.0008860460809315 -0.0008860460809315
  0.6666666666666643 -0.0008860460809315 -0.0008860460809315
  0.1666666666666643  0.2485988164129087  0.7515439044667767
  0.5000000000000000  0.2485988164129087  0.7515439044667767
  0.8333333333333357  0.2485988164129087  0.7515439044667767
  0.1666666666666643  0.7515439044667767  0.2485988164129087
  0.5000000000000000  0.7515439044667767  0.2485988164129087
  0.8333333333333357  0.7515439044667767  0.2485988164129087
  0.1666666666666643  0.7489848017136700  0.7489848017136700
  0.5000000000000000  0.7489848017136700  0.7489848017136700
  0.8333333333333357  0.7489848017136700  0.7489848017136700
  0.0000000000000000  0.4997328820823183  0.0007013953232316
  0.3333333333333357  0.4997328820823183  0.0007013953232316
  0.6666666666666643  0.4997328820823183  0.0007013953232316
  0.0000000000000000  0.0007013953232316  0.4997328820823183
  0.3333333333333357  0.0007013953232316  0.4997328820823183
  0.6666666666666643  0.0007013953232316  0.4997328820823183
  0.0000000000000000  0.5000350970744135  0.5000350970744135
  0.3333333333333357  0.5000350970744135  0.5000350970744135
  0.6666666666666643  0.5000350970744135  0.5000350970744135
 
  0.00000000E+00  0.00000000E+00  0.00000000E+00
  0.00000000E+00  0.00000000E+00  0.00000000E+00
  0.00000000E+00  0.00000000E+00  0.00000000E+00
  0.00000000E+00  0.00000000E+00  0.00000000E+00
  0.00000000E+00  0.00000000E+00  0.00000000E+00
  0.00000000E+00  0.00000000E+00  0.00000000E+00
  0.00000000E+00  0.00000000E+00  0.00000000E+00
  0.00000000E+00  0.00000000E+00  0.00000000E+00
  0.00000000E+00  0.00000000E+00  0.00000000E+00
  0.00000000E+00  0.00000000E+00  0.00000000E+00
  0.00000000E+00  0.00000000E+00  0.00000000E+00
  0.00000000E+00  0.00000000E+00  0.00000000E+00
  0.00000000E+00  0.00000000E+00  0.00000000E+00
  0.00000000E+00  0.00000000E+00  0.00000000E+00
  0.00000000E+00  0.00000000E+00  0.00000000E+00
  0.00000000E+00  0.00000000E+00  0.00000000E+00
  0.00000000E+00  0.00000000E+00  0.00000000E+00
  0.00000000E+00  0.00000000E+00  0.00000000E+00
  0.00000000E+00  0.00000000E+00  0.00000000E+00
  0.00000000E+00  0.00000000E+00  0.00000000E+00
  0.00000000E+00  0.00000000E+00  0.00000000E+00
  0.00000000E+00  0.00000000E+00  0.00000000E+00
  0.00000000E+00  0.00000000E+00  0.00000000E+00
  0.00000000E+00  0.00000000E+00  0.00000000E+00
