Converted from final.data
1.0
14.9348493410944485 0.0000000000000000 0.0000000000000000
-0.0897784217870432 15.0783551266829363 0.0000000000000000
-0.2119195388218906 -0.6142838358045332 33.0071461275359539
Cu W Ni Zr Nb
10 19 5 1 26
Direct
0.2047495901143427 0.0761489276380158 0.3968822762375117
0.2861575891941246 0.3098016725813499 0.4295292794731397
0.0407980409829452 0.5360197036371365 0.2842548149325556
0.4518095458553704 0.2443221704823194 -0.0114473325689261
0.2266891851949533 0.8414075221272189 0.1270122692448872
0.1249414793357898 0.3686199766662811 0.4380634179157488
0.0980947316855989 0.0669854007388560 0.2143231288372585
0.5223892892819220 0.0494239942554685 0.4688384782288832
0.3330955103544938 0.0495131825094993 0.3728078656598631
0.1270385186167032 0.2703360963674485 0.2579134009215716
0.9202248686206131 0.5610919883957795 0.4663794466292031
0.2219248149831838 0.3644246381460367 0.2013441007446785
0.4079294444341760 0.1630630986389195 0.3009143218314582
0.1994814947089628 0.2597489788530230 0.0433389953029867
0.4248331356905044 0.2556450073382595 0.4733416745769176
0.4063142341067320 0.3333814604766646 0.5671139300574152
0.0403101542725119 0.3702537089490753 0.0485328889416553
0.0615895601872276 0.2524042891599900 -0.0131807246924987
0.0599936452003850 0.2822044448030306 0.4962723671877943
0.3537314327442437 0.1019272669692454 0.4552759541562902
-0.0211648442105295 0.4192446477608369 0.5221105842843337
0.6771052104737051 0.3893692270963909 0.5470858497849453
0.6392010352688000 0.4343434435971416 0.4555597049295008
0.6778485421727204 0.0348958866349727 0.3106263530774763
0.7754982540516674 0.3288499575098665 0.4808114540617230
0.4862868953547075 0.2496569609789769 0.2569366462073854
0.8072984813937018 0.4848384139082396 0.4203028590567485
0.7395221258629132 0.2131028741199710 0.5350194219754526
0.0447277992389304 0.1461405530437422 0.3646024047992748
0.1895757771967681 0.0263480446837906 0.4625017393783964
0.9880995222181661 0.9086310021691710 0.0940385397665085
0.0142327616957448 0.1501274753824202 0.9705519313296581
0.2900916309682154 0.2328386332202022 0.1138246479155386
0.2525885220846652 0.0301483256081228 0.2429979910584945
0.6193260827335700 0.3059847661901360 0.2019756411429695
0.0979192805175766 0.3399456243616314 0.5880753541749720
0.1157879919951756 0.3294891515459356 0.3672407106396155
0.5951804858098564 0.2022759168023846 0.3342531240018524
0.1128438640188839 0.2293647641093338 0.1715655396175832
0.5535222956088125 0.0785920740170776 0.0352205457134645
0.1619180315736661 0.4496473786743236 0.5170394640631316
0.1767428576841405 0.4347340517540324 0.3063036397492560
0.1712331416684653 0.1950823616934479 0.4479736695604775
0.4055393515780399 0.2045589079675010 0.3851521718009585
0.2412053469668815 0.4586555095788236 0.3822645735160001
0.9647024024952591 -0.0071285227384681 0.2429549174095041
0.8351083165069147 0.1798433737667651 0.0912461112242491
0.3908540572889937 0.1780554561769594 0.0622995541532151
0.8903628919090030 0.4671047026505455 0.2664866385781841
0.2563298415575185 0.9810683486535369 0.1765161137030120
0.0694283753427866 0.4174173287277331 0.2245469868194104
0.0737486005584789 0.1799676637678877 0.0775516397948098
0.9058510371595425 0.0733790890691100 0.1668578614039098
0.0375527041352652 0.4652436288879033 0.1386172613729702
0.3071523622779924 0.3303346955090732 0.2805792531614812
0.2793653089249816 0.2513146903900346 -0.0295011642789984
0.3806974083382937 0.0861100078748953 0.1443941199102561
-0.0304433309189188 0.2551822282063866 0.1229383521593844
0.0138431726419434 0.9791897857354052 0.1620244391587146
0.3401457656520588 0.4245866628870457 0.4862062751740042
0.2526706261556615 0.2653319194855966 0.3497223795073556
