Al1 Ni3 
1.0
4.0110984385978457e+00 0.0000000000000000e+00 0.0000000000000000e+00 
2.0056444359499022e+00 3.4736549443692466e+00 0.0000000000000000e+00 
2.0055685953612357e+00 1.1577481531659595e+00 3.2751424752029306e+00 
Al Ni 
1 3 
Cartesian
   2.0061458401    3.4736063307    0.0000000494
   2.0054455012    1.1578507744    0.8187856188
   4.0110133412    2.3157119697    1.6375712376
   6.0166072527    3.4735488495    2.4563568564
