Al4 Ni4 Zr4 Nb12 W8 
1.0
6.7307997810214122e+00 0.0000000000000000e+00 0.0000000000000000e+00 
0.0000000000000000e+00 8.8777692873305263e+00 0.0000000000000000e+00 
0.0000000000000000e+00 0.0000000000000000e+00 9.0234080591543240e+00 
Al Ni Zr Nb W 
4 4 4 12 8 
Cartesian
   6.5459383650    2.3421153378    2.2174393667
   1.8675613612    2.3421153378    0.0384126481
   1.8675613612    8.7550962713    2.2174393667
   6.5459383650    8.7550962713    0.0384128286
   3.4663349640    4.3531431479    0.0086702860
   4.9471647622    4.3531431479    2.2471805196
   4.9471647622    6.7440684613    0.0086701597
   3.4663349640    6.7440684613    2.2471805196
   1.7437482993    2.2259408490    4.3955456976
   6.6697514270    8.8712707602    4.3955456976
   6.6697514270    2.2259408490    6.8837143763
   1.7437482993    8.8712707602    6.8837143763
   1.8375621866    4.4211468606    2.1136882208
   6.5759375397    4.4211468606    0.1421619893
   1.8375621866    6.6760647485    0.1421628916
   1.7112452671    6.6478511977    4.3878487306
   6.5759375397    6.6760647485    2.1136882208
   6.7022544592    4.4493604114    4.3878487306
   3.3839297823    4.4648698744    4.4617775128
   5.0295699440    6.6323417348    4.4617775128
   1.7112452671    4.4493604114    6.8914113434
   6.7022544592    6.6478511977    6.8914113434
   3.3839297823    6.6323417348    6.8174735377
   5.0295699440    4.4648698744    6.8174735377
   4.8976395375    2.2047407359    0.0264846952
   3.5158669196    2.2047407359    2.2293683121
   4.9450512911    2.2346055518    4.4892989074
   3.5158601888    0.0147008757    0.0264845148
   4.8976328067    0.0147006982    2.2293683121
   3.4684484352    8.8626060574    4.4892989074
   3.4684484352    2.2346055518    6.7899611666
   4.9450512911    8.8626060574    6.7899611666
