W8                                      
   1.00000000000000     
     5.0834477386725796   -0.0000000000000000    0.0000000000000000
    -0.0000000000000000    5.0834477386725796    0.0000000000000000
     0.0000000000000000    0.0000000000000000    5.0834477386725796
   W 
     8
Direct
  0.2500000000000000  0.0000000000000000  0.5000000000000000
  0.7500000000000000  0.0000000000000000  0.5000000000000000
 -0.0000000000000000  0.5000000000000000  0.2500009999999975
 -0.0000000000000000  0.5000000000000000  0.7499990000000025
  0.5000000000000000  0.7500000000000000 -0.0000000000000000
  0.5000000000000000  0.2500000000000000 -0.0000000000000000
 -0.0000000000000000  0.0000000000000000 -0.0000000000000000
  0.5000000000000000  0.5000000000000000  0.5000000000000000
 
  0.00000000E+00  0.00000000E+00  0.00000000E+00
  0.00000000E+00  0.00000000E+00  0.00000000E+00
  0.00000000E+00  0.00000000E+00  0.00000000E+00
  0.00000000E+00  0.00000000E+00  0.00000000E+00
  0.00000000E+00  0.00000000E+00  0.00000000E+00
  0.00000000E+00  0.00000000E+00  0.00000000E+00
  0.00000000E+00  0.00000000E+00  0.00000000E+00
  0.00000000E+00  0.00000000E+00  0.00000000E+00
