Al2 Cu1 
1.0
4.1593646997524711e+00 0.0000000000000000e+00 0.0000000000000000e+00 
0.0000000000000000e+00 4.1593645107496453e+00 0.0000000000000000e+00 
0.0000000000000000e+00 0.0000000000000000e+00 2.9141878787220015e+00 
Al Cu 
2 1 
Cartesian
   2.0796823499    4.1593645107    1.4570939394
   4.1593646998    2.0796822554    1.4570939394
   0.0000000016    0.0000000144    0.0000000231
