Ta1 
1.0
2.8752890265334772e+00 0.0000000000000000e+00 0.0000000000000000e+00 
-9.5842941709151408e-01 2.7108486848647413e+00 0.0000000000000000e+00 
-9.5842952978988061e-01 -1.3554236047940174e+00 2.3476636855992905e+00 
Ta 
1 
Cartesian
   2.8752864793    0.0000072034    0.0000000007
