Ni1
1.0
   1.3837154700000001    1.3837154700000001    1.3837154700000001
   1.3837154700000001   -1.3837154700000001   -1.3837154700000001
  -1.3837154700000001    1.3837154700000001   -1.3837154700000001
Ni
1
direct
   0.0000000000000000    0.0000000000000000    0.0000000000000000 Ni
