Al3 Ni3 Nb15 W3 
1.0
1.0157810442611122e+01 0.0000000000000000e+00 0.0000000000000000e+00 
0.0000000000000000e+00 4.4141896127885927e+00 0.0000000000000000e+00 
0.0000000000000000e+00 0.0000000000000000e+00 8.8968116789663707e+00 
Al Ni Nb W 
3 3 15 3 
Cartesian
   1.6929717930    2.5738698213    4.4736994751
   3.4894618323    2.5740154896    6.5560516294
  10.0542921964    2.5740154896    6.5560516294
   5.1079565592    2.5731149949    4.4868044787
   6.7718770143    2.5736844254    6.6198773564
   8.4357873117    2.5731149949    4.4868044787
   3.4860792814    2.5757944080    2.2904663731
   1.6929717930    0.3689472376    2.3213916905
  10.0576645895    2.5757988222    2.2904663731
   6.7718770143    2.5754103735    2.3497191389
   3.4379922068    0.3694217630    8.8309663757
   3.5031647186    0.3668059143    4.4921069785
   1.6929717930    2.5766507608    8.8358952094
   1.6929717930    0.3669736535    6.5737651815
  10.1057516641    0.3694217630    8.8309663757
  10.0405893101    0.3668059143    4.4921069785
   5.1684767938    2.5761740283    8.8457973608
   8.3752670771    2.5761740283    8.8457973608
   5.2039275522    0.3670522260    6.6354645705
   6.7718770143    0.3665688723    4.5118934876
   8.3398163186    0.3670522260    6.6354645705
   5.1338996070    0.3687362394    2.2737136767
   6.7718770143    0.3691913423    0.0463972288
   8.4098544216    0.3687362394    2.2737136767
