Al2 Ni6
1.0
   2.5045891500000002   -4.3379252600000004    0.0000000000000000
   2.5045941300000001    4.3379278200000000    0.0000000000000000
   0.0000000000000000    0.0000000000000000    4.0402563799999998
Al Ni
2 6
direct
   0.3333328300000000    0.6666677600000001    0.7500000000000000 Al
   0.6666686400000000    0.3333332600000000    0.2500000000000000 Al
   0.1642856400000000    0.3285235700000000    0.2500000000000000 Ni
   0.6714738500000000    0.8357165800000000    0.2500000000000000 Ni
   0.1642547900000000    0.8357510400000000    0.2500000000000000 Ni
   0.8357121200000001    0.6714742300000001    0.7500000000000000 Ni
   0.3285315200000000    0.1642852700000000    0.7500000000000000 Ni
   0.8357416100000000    0.1642482900000000    0.7500000000000000 Ni
