bcc_Al9_Cu3_Nb0_Ni3_Ta0_W3_Zr6          
   1.00000000000000     
    10.2497868835290049    0.0000000000000000    0.0000000000000000
     0.0000000000000000    6.3603888006723333    0.0000000000000000
     0.0000000000000000    0.0000000000000000    5.9740798783275828
   Al   Cu   Ni   W    Zr
     9     3     3     3     6
Direct
 -0.0000000000000000  0.4829714255006810 -0.0082390325364352
  0.3333333333333357  0.4829714255006810 -0.0082390325364352
  0.6666666666666643  0.4829714255006810 -0.0082390325364352
  0.1666666666666643  0.7154344724904452  0.2500000000000000
  0.5000000000000000  0.7154344724904452  0.2500000000000000
  0.8333333333333357  0.7154344724904452  0.2500000000000000
 -0.0000000000000000  0.4829714255006810  0.5082390325364354
  0.3333333333333357  0.4829714255006810  0.5082390325364354
  0.6666666666666643  0.4829714255006810  0.5082390325364354
  0.1666666666666643  0.2776711979073643  0.7500000000000000
  0.5000000000000000  0.2776711979073643  0.7500000000000000
  0.8333333333333357  0.2776711979073643  0.7500000000000000
  0.1666666666666643  0.3044918006848025  0.2500000000000000
  0.5000000000000000  0.3044918006848025  0.2500000000000000
  0.8333333333333357  0.3044918006848025  0.2500000000000000
  0.1666666666666643  0.7352471898651938  0.7500000000000000
  0.5000000000000000  0.7352471898651938  0.7500000000000000
  0.8333333333333357  0.7352471898651938  0.7500000000000000
 -0.0000000000000000  0.0006062440254162  0.0046000011583641
  0.3333333333333357  0.0006062440254162  0.0046000011583641
  0.6666666666666643  0.0006062440254162  0.0046000011583641
 -0.0000000000000000  0.0006062440254162  0.4953999988416358
  0.3333333333333357  0.0006062440254162  0.4953999988416358
  0.6666666666666643  0.0006062440254162  0.4953999988416358
 
  0.00000000E+00  0.00000000E+00  0.00000000E+00
  0.00000000E+00  0.00000000E+00  0.00000000E+00
  0.00000000E+00  0.00000000E+00  0.00000000E+00
  0.00000000E+00  0.00000000E+00  0.00000000E+00
  0.00000000E+00  0.00000000E+00  0.00000000E+00
  0.00000000E+00  0.00000000E+00  0.00000000E+00
  0.00000000E+00  0.00000000E+00  0.00000000E+00
  0.00000000E+00  0.00000000E+00  0.00000000E+00
  0.00000000E+00  0.00000000E+00  0.00000000E+00
  0.00000000E+00  0.00000000E+00  0.00000000E+00
  0.00000000E+00  0.00000000E+00  0.00000000E+00
  0.00000000E+00  0.00000000E+00  0.00000000E+00
  0.00000000E+00  0.00000000E+00  0.00000000E+00
  0.00000000E+00  0.00000000E+00  0.00000000E+00
  0.00000000E+00  0.00000000E+00  0.00000000E+00
  0.00000000E+00  0.00000000E+00  0.00000000E+00
  0.00000000E+00  0.00000000E+00  0.00000000E+00
  0.00000000E+00  0.00000000E+00  0.00000000E+00
  0.00000000E+00  0.00000000E+00  0.00000000E+00
  0.00000000E+00  0.00000000E+00  0.00000000E+00
  0.00000000E+00  0.00000000E+00  0.00000000E+00
  0.00000000E+00  0.00000000E+00  0.00000000E+00
  0.00000000E+00  0.00000000E+00  0.00000000E+00
  0.00000000E+00  0.00000000E+00  0.00000000E+00
