hcp_Al9_Cu3_Nb0_Ni0_Ta6_W3_Zr3          
   1.00000000000000     
     8.5813730249778182    0.0000000000000000    0.0000000000000000
     0.0000000000000000    4.9809358643734418   -0.1093444839755468
     0.0000000000000000   -0.2051808271016771    9.5054380069563447
   Al   Cu   Ta   W    Zr
     9     3     6     3     3
Direct
  0.0033025071309353 -0.0126666145632255 -0.0026186605119995
  0.1666669999999968  0.2178372478240463  0.2545582983992264
  0.3300304928690678 -0.0126666145632255 -0.0026186605119995
  0.5033276542188065  0.0735579172585114  0.7558016084031020
  0.6666669999999968  0.0951871816328695  0.5025241225157633
  0.8300053457811967  0.0735579172585114  0.7558016084031020
  0.4961050750398449  0.5889882037273980  0.5000589737030608
  0.6666669999999968  0.5641758316480957  0.7497140033039172
  0.8372279249601579  0.5889882037273980  0.5000589737030608
  0.5028782503295841  0.3948925893282859 -0.0315298428300200
  0.6666669999999968  0.7424795509040111  0.2999553199428721
  0.8304547496704187  0.3948925893282859 -0.0315298428300200
 -0.0039143308876374  0.0863589297918872  0.5042408614548206
  0.1666669999999968  0.0767441647476371  0.7519110116112410
  0.3372473308876406  0.0863589297918872  0.5042408614548206
  0.0062752334250092  0.7197440714291645  0.2470397724449548
  0.1666669999999968  0.5072423490100306 -0.0117640945279211
  0.3270577665749941  0.7197440714291645  0.2470397724449548
 -0.0120042195670601  0.5931886686334947  0.7480428948644162
  0.1666669999999968  0.5759890731909306  0.5145732902066640
  0.3453372195670635  0.5931886686334947  0.7480428948644162
  0.4980299919288025  0.2378705305463816  0.2386850980308602
  0.6666669999999968 -0.1435199912614565  0.0190866374298443
  0.8353030080712005  0.2378705305463816  0.2386850980308602
 
  0.00000000E+00  0.00000000E+00  0.00000000E+00
  0.00000000E+00  0.00000000E+00  0.00000000E+00
  0.00000000E+00  0.00000000E+00  0.00000000E+00
  0.00000000E+00  0.00000000E+00  0.00000000E+00
  0.00000000E+00  0.00000000E+00  0.00000000E+00
  0.00000000E+00  0.00000000E+00  0.00000000E+00
  0.00000000E+00  0.00000000E+00  0.00000000E+00
  0.00000000E+00  0.00000000E+00  0.00000000E+00
  0.00000000E+00  0.00000000E+00  0.00000000E+00
  0.00000000E+00  0.00000000E+00  0.00000000E+00
  0.00000000E+00  0.00000000E+00  0.00000000E+00
  0.00000000E+00  0.00000000E+00  0.00000000E+00
  0.00000000E+00  0.00000000E+00  0.00000000E+00
  0.00000000E+00  0.00000000E+00  0.00000000E+00
  0.00000000E+00  0.00000000E+00  0.00000000E+00
  0.00000000E+00  0.00000000E+00  0.00000000E+00
  0.00000000E+00  0.00000000E+00  0.00000000E+00
  0.00000000E+00  0.00000000E+00  0.00000000E+00
  0.00000000E+00  0.00000000E+00  0.00000000E+00
  0.00000000E+00  0.00000000E+00  0.00000000E+00
  0.00000000E+00  0.00000000E+00  0.00000000E+00
  0.00000000E+00  0.00000000E+00  0.00000000E+00
  0.00000000E+00  0.00000000E+00  0.00000000E+00
  0.00000000E+00  0.00000000E+00  0.00000000E+00
