Zr6 Al2                                 
   1.00000000000000     
     3.1019607866316150   -5.3727534423244538   -0.0000000000000000
     3.1019607866316150    5.3727534423244538   -0.0000000000000000
    -0.0000000000000000   -0.0000000000000000    5.0681038051244665
   Zr   Al
     6     2
Direct
  0.1715341304205607  0.3430672608411208  0.2500000000000000
  0.6569327391588793  0.8284658695794392  0.2500000000000000
  0.1715341304205576  0.8284658695794423  0.2500000000000000
  0.8284658695794392  0.6569327391588793  0.7500000000000000
  0.3430672608411208  0.1715341304205607  0.7500000000000000
  0.8284658695794423  0.1715341304205576  0.7500000000000000
  0.3333330000000032  0.6666669999999968  0.7500000000000000
  0.6666669999999968  0.3333330000000032  0.2500000000000000
 
  0.00000000E+00  0.00000000E+00  0.00000000E+00
  0.00000000E+00  0.00000000E+00  0.00000000E+00
  0.00000000E+00  0.00000000E+00  0.00000000E+00
  0.00000000E+00  0.00000000E+00  0.00000000E+00
  0.00000000E+00  0.00000000E+00  0.00000000E+00
  0.00000000E+00  0.00000000E+00  0.00000000E+00
  0.00000000E+00  0.00000000E+00  0.00000000E+00
  0.00000000E+00  0.00000000E+00  0.00000000E+00
