Al3 Ni3 Cu15 Zr3 
1.0
1.1171738929900565e+01 0.0000000000000000e+00 0.0000000000000000e+00 
-8.5847708264919892e-08 5.4172683160588102e+00 0.0000000000000000e+00 
7.7795832423623627e-08 3.1967618311143579e-02 5.4171656515237228e+00 
Al Ni Cu Zr 
3 3 15 3 
Cartesian
   3.7239092488    2.6196493354    2.6042319638
   0.0000000706    2.6196493354    2.6042319638
   7.4478296733    2.6196493354    2.6042319638
   0.0000001047    0.0237102772    0.0235703586
   3.7239092527    0.0237103314    0.0235703586
   7.4478296771    0.0237103856    0.0235703586
   1.8619602479    1.4458356800    4.0528416479
   3.7239092894    0.0402717400    2.5816857204
   1.8619601684    4.0613092846    1.4218922230
   1.8619602102    1.3659000301    1.3578613250
   0.0000000147    2.5818769662    0.0250349977
   3.7239092122    2.5818769662    0.0250349977
   0.0000001409    0.0402717400    2.5816857204
   5.5858694629    1.3659000301    1.3578613250
   5.5858694211    4.0613092846    1.4218922230
   5.5858695006    1.4458356800    4.0528416479
   9.3097787533    1.4458356800    4.0528416479
   7.4478297139    0.0402717400    2.5816857204
   9.3097786739    4.0613092846    1.4218922230
   9.3097787157    1.3659000301    1.3578613250
   7.4478296366    2.5818769666    0.0250350519
   1.8619602060    4.2091533128    4.1843812642
   5.5858694587    4.2091533128    4.1843812642
   9.3097787115    4.2091533128    4.1843812642
