Al6 Ta10 
1.0
7.7637290744365171e+00 0.0000000000000000e+00 0.0000000000000000e+00 
-3.8819409687001176e+00 6.7237188037646565e+00 0.0000000000000000e+00 
0.0000000000000000e+00 0.0000000000000000e+00 5.2892506223281499e+00 
Al Ta 
6 10 
Cartesian
   1.5573268063    2.6975021943    1.3223126556
  -0.7666437491    6.7237188038    3.9669379667
  -1.5574255448    2.6975627078    3.9669379667
   4.6488102805    0.0000034590    1.3223126556
   5.4391801212    4.0262233332    1.3223126556
   2.3244302453    4.0261493723    3.9669379667
  -0.0000470723    4.4824679963    2.6446041542
  -0.0000470723    4.4824679963    0.0000210128
   1.8024784234    0.0000056546    1.3223126556
   0.9011687569    1.5606894376    3.9669379667
  -0.9011757506    1.5609583863    1.3223126556
  -2.9807358778    5.1630091950    3.9669379667
   3.8818351781    2.2412508075    2.6446041542
   3.8818351781    2.2412508075    0.0000205789
   2.9806465248    5.1627805886    1.3223126556
   2.0802497109    6.7237120800    3.9669379667
