POSCAR file written by OVITO Basic 3.9.4
1
7.4469288 0.0 0.0
0.2138536194 7.3004429491 0.0
0.0577746153 -0.1157792187 15.7059
Al Zr Nb W Ta Ni 
7 20 6 11 5 14 
Cartesian
1.90623 5.49464 3.53562
5.38828 1.8521 7.08074
1.82483 3.66655 5.30292
5.5794 7.30943 5.30663
0.0230788 1.82769 1.78042
0.128693 5.48402 1.75889
3.59858 1.83151 5.31537
0.0841731 7.30571 7.08001
7.42541 7.29683 3.53639
-0.0215188 3.65001 7.08001
7.31707 3.6558 3.5377
3.57537 0.00938299 3.54164
3.60766 3.67295 7.07771
3.68056 3.66487 3.54855
1.73849 1.83368 7.08395
5.44522 1.83486 3.53518
5.48675 5.47793 7.08319
5.55103 5.48 3.54057
1.78295 0.00585549 1.76978
1.89507 3.65203 1.76588
5.42987 0.0102928 1.77404
5.53307 3.65491 1.78066
5.46583 3.65897 5.31629
7.22878 1.83292 5.32058
7.33684 5.48793 5.31005
3.66108 1.82774 1.77009
3.77218 5.47115 1.77358
1.81492 1.84585 3.54535
1.84887 5.49013 7.08044
2.276320032 1.192836857 12.743418
0.8571339147 6.6262522248 9.476568
6.5846194356 1.3259699745 15.711378
3.0051492153 0.849957859 9.883398
3.3724444332 2.9324153805 11.311388
6.134001336 3.579054753 14.217128
4.2044020849 5.1892590457 9.927718
7.1900327512 3.962864299 9.488422
0.7929195284 2.0680830549 10.908458
1.5822633898 1.6593519889 15.208188
5.7319233256 0.7838901337 10.890018
6.0963584199 3.0973126026 11.671178
1.8515045521 4.8990084932 10.918188
4.3156701163 1.5137933825 15.011268
3.7129426515 6.8152647713 11.738698
1.72725 0.0150203 5.3154
3.69356 5.49455 5.31731
1.3632435364 4.6649598478 14.812828
2.5058782617 5.6340371302 13.173718
5.3566833201 6.7582768234 13.595438
2.8317785736 3.4581959627 9.375604
2.8594981937 6.813491141 15.255758
7.2677173966 5.2273920952 12.920438
6.9839398359 1.5145592683 13.411168
1.0120080658 3.2827980436 12.981738
4.8119681816 4.5970781826 12.325718
4.8078163894 1.4742494908 12.813938
6.2569251396 6.1858175189 15.680458
0.6169071166 7.0167128841 14.238758
0.8641776095 6.8398134257 11.716228
4.9742263721 3.399101829 9.08395
4.2994319956 4.9105169346 14.716908
3.2553843955 3.177760841 13.350308
6.2971103876 5.6690764042 10.991688
