Ni3 Cu3 Zr6 Ta3 W9 
1.0
1.0050144719292248e+01 0.0000000000000000e+00 0.0000000000000000e+00 
-1.6539714057277723e-04 6.3313314021908003e+00 0.0000000000000000e+00 
-2.1458183644980578e-04 -3.2895562377305032e-01 6.2354741856296538e+00 
Ni Cu Zr Ta W 
3 3 6 3 9 
Cartesian
   3.3498581767    2.8627984680    3.1272025426
  10.0499580063    2.8627984680    3.1272025426
   6.6999131165    2.8627984680    3.1272025426
   1.6748519514    4.6436228148    1.5146278571
   5.0248968411    4.6436228148    1.5146278571
   8.3749417308    4.6436228148    1.5146278571
  -0.0001063866   -0.0972015959    3.0437469561
   3.3499384895   -0.0972015959    3.0437469561
   1.6747461727    4.4382334471    4.6199750627
   5.0247910624    4.4382334471    4.6199750627
   6.6999934294   -0.0972015959    3.0437469561
   8.3748359521    4.4382334471    4.6199750627
   3.3499592704    3.1165163262    0.1174782043
  -0.0000854825    3.1165226576    0.1174782043
   6.7000142103    3.1165163262    0.1174782043
   1.6749314605    1.5802696567    1.5290629798
   5.0249763503    1.5802696567    1.5290629798
   1.6748223380    1.3868155775    4.7191253377
  10.0501414718    0.0760756026    0.0352074826
   3.3500416422    0.0760749761    0.0352073579
   5.0248672277    1.3868155775    4.7191253377
   8.3750212400    1.5802696567    1.5290629798
   8.3749121174    1.3868155775    4.7191253377
   6.7000965821    0.0760749761    0.0352073579
