Al3 Zr1 
1.0
4.1504878514817971e+00 0.0000000000000000e+00 0.0000000000000000e+00 
3.6379604902640078e-10 4.1504878619540824e+00 0.0000000000000000e+00 
-7.2837016053380662e-08 -9.2733936860738173e-08 4.1504874796466611e+00 
Al Zr 
3 1 
Cartesian
   4.1504878152    2.0752438846    2.0752437398
   2.0752438897    4.1504878156    2.0752437398
   2.0752439259    2.0752439310    0.0000000041
   4.1504877790    4.1504877692    4.1504874796
