Nb8 Ni16
1.0
   2.3978429999999999   -4.1531859999999998    0.0000000000000000
   2.3978429999999999    4.1531859999999998    0.0000000000000000
   0.0000000000000000    0.0000000000000000   15.6663540000000001
Nb Ni
8 16
direct
   0.0000000000000000    0.0000000000000000    0.4024720000000000 Nb
   0.0000000000000000    0.0000000000000000    0.5975279999999999 Nb
   0.0000000000000000    0.0000000000000000    0.9024719999999991 Nb
   0.0000000000000000    0.0000000000000000    0.0975279999999990 Nb
   0.3333330000000000    0.6666670000000000    0.6540690000000000 Nb
   0.6666670000000000    0.3333330000000000    0.3459310000000000 Nb
   0.6666670000000000    0.3333330000000000    0.1540689999999990 Nb
   0.3333330000000000    0.6666670000000000    0.8459310000000000 Nb
   0.3333330000000000    0.6666670000000000    0.3759070000000000 Ni
   0.6666670000000000    0.3333330000000000    0.6240930000000000 Ni
   0.6666670000000000    0.3333330000000000    0.8759070000000000 Ni
   0.3333330000000000    0.6666670000000000    0.1240930000000000 Ni
   0.5000000000000000    0.5000000000000000    0.5000000000000000 Ni
   0.5000000000000000    0.0000000000000000    0.5000000000000000 Ni
   0.0000000000000000    0.5000000000000000    0.5000000000000000 Ni
   0.5000000000000000    0.5000000000000000    0.0000000000000000 Ni
   0.5000000000000000    0.0000000000000000    0.0000000000000000 Ni
   0.0000000000000000    0.5000000000000000    0.0000000000000000 Ni
   0.1644120000000000    0.8355880000000000    0.2500000000000000 Ni
   0.1644120000000000    0.3288240000000000    0.2500000000000000 Ni
   0.6711760000000000    0.8355880000000000    0.2500000000000000 Ni
   0.8355880000000000    0.1644120000000000    0.7500000000000000 Ni
   0.8355880000000000    0.6711760000000000    0.7500000000000000 Ni
   0.3288240000000000    0.1644120000000000    0.7500000000000000 Ni
