Zr10 Al6
1.0
   4.1726559999999999   -7.2272520000000000    0.0000000000000000
   4.1726559999999999    7.2272520000000000    0.0000000000000000
   0.0000000000000000    0.0000000000000000    5.5418360000000000
Zr Al
10 6
direct
   0.3333330000000000    0.6666670000000000    0.0000000000000000 Zr
   0.6666670000000000    0.3333330000000000    0.5000000000000000 Zr
   0.6666670000000000    0.3333330000000000    0.0000000000000000 Zr
   0.3333330000000000    0.6666670000000000    0.5000000000000000 Zr
   0.2388620000000000    0.0000000000000000    0.2500000000000000 Zr
   0.2388620000000000    0.2388620000000000    0.7500000000000000 Zr
   0.0000000000000000    0.7611380000000000    0.7500000000000000 Zr
   0.0000000000000000    0.2388620000000000    0.2500000000000000 Zr
   0.7611380000000000    0.7611380000000000    0.2500000000000000 Zr
   0.7611380000000000    0.0000000000000000    0.7500000000000000 Zr
   0.6069479999999990    0.0000000000000000    0.2500000000000000 Al
   0.6069479999999990    0.6069479999999990    0.7500000000000000 Al
   0.0000000000000000    0.3930519999999990    0.7500000000000000 Al
   0.0000000000000000    0.6069479999999990    0.2500000000000000 Al
   0.3930519999999990    0.3930519999999990    0.2500000000000000 Al
   0.3930519999999990    0.0000000000000000    0.7500000000000000 Al
