Ni1 Cu1 
1.0
4.3904954670988712e+00 0.0000000000000000e+00 0.0000000000000000e+00 
3.6678982042155805e+00 2.4117625432032441e+00 0.0000000000000000e+00 
3.6676740916740891e+00 1.0980424982186276e+00 2.1472502900159429e+00 
Ni Cu 
1 1 
Cartesian
   5.8630558887    1.7549156776    1.0736272923
   8.0581992578    1.0980893219    2.1472481428
