Converted from final.data
1.0
14.9280541925688546 0.0000000000000000 0.0000000000000000
-0.0896994219286469 15.0714946850226337 0.0000000000000000
-0.2117330617907130 -0.6137433012854410 32.9921283355776893
Cu W Ni Zr Nb
10 19 5 1 26
Direct
0.0981782703846618 0.2129046652885721 0.5390743386432233
0.1097105948319247 0.2477967856913889 0.4565098731727187
-0.0281673163170447 0.2938433302309498 0.3324689296490827
0.1128630077957828 -0.0325730054966732 0.1010429607239454
0.2880204680660353 0.2861603450333929 0.1525577103170049
0.2302905515208920 0.4484553068882602 0.0296714247295989
0.0320800360921766 0.1749590473895855 0.3703217767509357
0.0398539299339677 -0.0034107530720824 0.3710354890726915
0.3442578965273177 0.8030491098239317 0.4881534615173536
0.6795046024016607 0.2801075739497347 0.4818123100431937
0.1450230567999582 0.4273767309429404 0.4425854714749431
0.9706629463198789 0.1134036267343113 0.2262975919435626
0.3480967580305803 0.8217420323283420 0.3155714824890611
0.1017537469619101 0.9389609686410505 0.5122299385549576
0.4986535700369172 0.9084038963969814 0.3589761363204838
0.2738818089027096 0.1872717361473454 0.2226236888248079
-0.0142508945024522 0.2664358496576437 0.1039649631628138
0.0439266289939434 0.1120633711191073 0.0671607208212232
0.1703190973374657 0.2287542976789963 0.1136335587252868
0.2962065068892315 0.3700522351244894 0.0857996438538901
0.3292904457115342 -0.0046428958080332 0.2060726368843251
0.3974017356474775 0.1624930826662062 0.1684711294680223
0.6121920817840572 0.5449468566018373 0.0490291584819403
0.5111227809225012 0.2841769959786838 0.0637137917358990
0.1081558169619094 0.9714902380502044 0.2919297142883508
0.5936480903056903 0.2097332591448124 0.1868066594553618
0.1155605199613800 0.1356866114935745 -0.0176536704844851
0.0457130528401361 0.7851706153518742 0.4706202697933798
0.1225410756504890 0.0621595249579182 0.4855703118048915
0.3637780391949668 0.2291244185892677 0.2783781646416963
0.1684378442916925 0.0904622653529398 0.3458597123245045
0.5144221134616287 0.1485511268779072 0.1168439382281153
0.2444401040588637 0.9342068514318530 0.4276401571106984
0.9217665066463057 0.6229912386093522 0.0743661253179576
0.8969544226382010 0.0825666140824219 0.3538249161378035
0.3063767458860376 0.3898085818403180 0.3003456690340258
0.1948419094038767 0.9076024438928058 0.3609785818729432
0.4962175490813925 0.3215887436421572 0.2944217364015784
0.2741412649782311 0.0595678054087107 0.2853134725401340
0.4604909484126362 0.4395511065337084 0.0554404559841185
0.1107013097945951 0.9390426713314167 0.1962140138924821
0.5195869293015098 -0.0053857574297643 0.1703419238590547
0.5733894970235924 0.1953177387461299 -0.0220180614603657
0.4592885164785096 0.3237013168335380 0.1362724014188313
0.1729742838796685 0.3201107614939681 0.3647557430105963
0.2644737783813009 0.4659162644789755 0.3845109324630303
0.6379629750976402 0.2298075601093020 0.2617799780730031
0.2791835124247038 -0.0045722818091566 0.4869169104361966
0.0172325564932728 0.1080730785536572 0.3079554903427383
0.1979473028166070 0.0984128655140013 0.4154809416760702
0.3572851330657109 0.4161940747353672 0.4565850663924923
0.3540338929919278 0.1328160726527487 -0.0114259441014928
0.3479152164047994 0.1807578888830045 0.0845367886732955
0.2291681882356751 0.0649884475254984 0.0455866326012365
0.4269501026869378 0.3132466768585100 0.2186695411637389
0.1243591478753584 0.3701839828588105 -0.0201952705447487
0.5003383998201441 0.0763947692560092 0.0382481957580867
0.2286246231889855 0.0728995387171701 0.1532996387597775
0.0890598494006869 0.3977837466603684 0.0659797942492758
0.1974525064196903 0.2400660529374524 0.0262768570341979
0.3736536634450753 0.0116920058784457 0.1161512330471951
