bcc_Al3_Cu0_Nb9_Ni0_Ta3_W6_Zr3          
   1.00000000000000     
     9.8917606089459102    0.0000000000000000    0.0000000000000000
     0.0000000000000000    6.4845246807940535    0.0122626817670848
     0.0000000000000000    0.0130986670978337    6.6808220245093466
   Al   Nb   Ta   W    Zr
     3     9     3     6     3
Direct
  0.1666666666666643  0.2485206427181054  0.7778796287964945
  0.5000000000000000  0.2485206427181054  0.7778796287964945
  0.8333333333333357  0.2485206427181054  0.7778796287964945
  0.0000000000000000  0.4915438424115508  0.4928645063645788
  0.3333333333333357  0.4915438424115508  0.4928645063645788
  0.6666666666666643  0.4915438424115508  0.4928645063645788
  0.1666666666666643  0.7499159766712094  0.2457956374088024
  0.5000000000000000  0.7499159766712094  0.2457956374088024
  0.8333333333333357  0.7499159766712094  0.2457956374088024
  0.0000000000000000  0.5008892002935582  0.0047499344491033
  0.3333333333333357  0.5008892002935582  0.0047499344491033
  0.6666666666666643  0.5008892002935582  0.0047499344491033
  0.1666666666666643  0.7484376132282045  0.7578563523712626
  0.5000000000000000  0.7484376132282045  0.7578563523712626
  0.8333333333333357  0.7484376132282045  0.7578563523712626
  0.1666666666666643  0.2523007910083338  0.2209895566292800
  0.5000000000000000  0.2523007910083338  0.2209895566292800
  0.8333333333333357  0.2523007910083338  0.2209895566292800
  0.0000000000000000 -0.0066823793487685  0.0061711777636726
  0.3333333333333357 -0.0066823793487685  0.0061711777636726
  0.6666666666666643 -0.0066823793487685  0.0061711777636726
  0.0000000000000000  0.0150743130178065  0.4936932062168057
  0.3333333333333357  0.0150743130178065  0.4936932062168057
  0.6666666666666643  0.0150743130178065  0.4936932062168057
 
  0.00000000E+00  0.00000000E+00  0.00000000E+00
  0.00000000E+00  0.00000000E+00  0.00000000E+00
  0.00000000E+00  0.00000000E+00  0.00000000E+00
  0.00000000E+00  0.00000000E+00  0.00000000E+00
  0.00000000E+00  0.00000000E+00  0.00000000E+00
  0.00000000E+00  0.00000000E+00  0.00000000E+00
  0.00000000E+00  0.00000000E+00  0.00000000E+00
  0.00000000E+00  0.00000000E+00  0.00000000E+00
  0.00000000E+00  0.00000000E+00  0.00000000E+00
  0.00000000E+00  0.00000000E+00  0.00000000E+00
  0.00000000E+00  0.00000000E+00  0.00000000E+00
  0.00000000E+00  0.00000000E+00  0.00000000E+00
  0.00000000E+00  0.00000000E+00  0.00000000E+00
  0.00000000E+00  0.00000000E+00  0.00000000E+00
  0.00000000E+00  0.00000000E+00  0.00000000E+00
  0.00000000E+00  0.00000000E+00  0.00000000E+00
  0.00000000E+00  0.00000000E+00  0.00000000E+00
  0.00000000E+00  0.00000000E+00  0.00000000E+00
  0.00000000E+00  0.00000000E+00  0.00000000E+00
  0.00000000E+00  0.00000000E+00  0.00000000E+00
  0.00000000E+00  0.00000000E+00  0.00000000E+00
  0.00000000E+00  0.00000000E+00  0.00000000E+00
  0.00000000E+00  0.00000000E+00  0.00000000E+00
  0.00000000E+00  0.00000000E+00  0.00000000E+00
