Converted from final.data
1.0
14.8562259034762860 0.0000000000000000 0.0000000000000000
0.0125256031469500 14.7314196170716052 0.0000000000000000
-0.2490336324722848 0.1826310925015834 38.2955498899547635
Al Cu Ni Zr Nb Ta
10 9 11 17 13 4
Direct
0.7933216270383816 0.3742974150049024 0.4210953801574691
-0.0040815426567475 0.2529234317653049 0.3147031887303936
0.9221318185428302 0.6064744740898984 0.1186639541211869
0.9615776632304600 0.6962197833940352 0.4402376706816840
0.1356438304541124 0.7003699673947447 0.5497615447231693
0.0435519650603717 -0.0118942874238963 0.2420328255289683
0.0487066139941901 0.8570336803475272 0.2854835086014553
0.7632356260434207 0.5310272066480446 0.2273664468650442
0.0260619004089061 0.6716833238679216 0.2871988563875366
0.9096072862863329 0.4047525606389678 0.1985194871363605
0.6682847891177828 -0.0053050839704343 0.4076925373719849
0.9319802265700369 0.8458005464253496 0.4391008587320224
0.4203265867212277 0.8989569814649385 0.2347858144016222
0.8140277506397889 0.9609161667343172 0.4451609398565378
0.8783206242287207 0.2313511147967824 0.4179798449523022
0.0205024310692478 0.4238266354276253 0.2924589020092819
0.7849350540523721 0.9316396063533752 0.1479904430659053
0.9916510354492085 0.3144506219977776 0.2377196004556955
0.5487226212600552 0.8754696716458352 0.1424076689910593
0.8289689704858887 0.5251693274369631 0.5129140897038441
0.0055201306249521 0.7604635056151826 0.2326560978521119
0.6927392346793324 0.8929752915608002 0.0916608808064179
0.8811500913676228 0.5613596575901502 0.1735715732927143
0.7624492081510936 0.5845664399566129 0.1346362120636324
0.7195142669442633 0.3556521652388099 0.2345357104697094
0.9736469457662073 0.2545027815599702 0.5261041949604872
0.3086068727457877 0.4529533181998278 0.4542851667579337
0.8419266225734067 0.5465971286400758 0.4455180032609954
0.6852476566186506 0.6405965818375396 0.4979897041686512
0.0851246529077216 0.5590612607710925 0.3538826965298383
0.2151003063996024 0.5220078273620682 0.5775082136219246
0.8985055134271008 0.3740322342601461 0.4806455398615025
0.8321798847592866 0.7131197421357240 0.2078891659576995
0.7408922545586401 0.7482073817411368 0.3287499556283953
0.1785667491685446 0.5536176330963994 0.2856512702702592
0.8664866783203523 0.4095970618138478 0.2832947994116793
0.7783688391343648 0.7571713188508610 0.4226044770160839
0.6044086354070832 0.2434275305457864 0.2027314285395802
0.6932292766849166 0.5106440507893649 0.4564584836379191
0.6957260298325861 0.4329747985627493 0.5603512339019715
0.7662350174724538 0.0671271730740351 0.3407946321577507
0.2333699233773666 0.5427483171039971 0.3861484986032038
0.0969876885279378 0.8853713356199941 0.1903337919324167
0.1628506184786096 0.2920430413692228 0.2886719525361854
-0.0095595623464628 0.7273501731415268 0.1688617226650123
0.4494253871897678 0.5921533269753090 0.6182333798547657
0.3298026991634401 0.3159973110109786 0.3599284074938652
0.1480315412036179 0.3381483406302694 0.5900821040301708
0.1022860622715520 0.6565023471754857 0.4129583059817163
0.0571177668109516 0.7136776390497982 0.6141392104616699
0.9453106685495262 0.5671815280261837 0.2421851167436601
0.2122065539610453 0.7664115090473450 0.4750550029766581
-0.0165363703916876 0.7279467977840269 0.0934287988129935
-0.0163715086307612 0.5396888186502288 0.4785950929281588
0.9135860001465020 0.7614017085190765 0.2830317676427849
0.8005086528498209 0.6202727142071687 0.2836628862682516
0.8378956828115087 0.8400978632818447 0.6953705394075752
0.1041881052626882 0.4914556627929493 0.4353955105865960
-0.0148105730739046 0.5990017049713269 0.5477154838048283
0.0315803620806312 0.4267807576393990 0.5334157965728961
0.6616868147372316 0.8917211982729588 0.4465328227606063
0.4526483142001985 0.8573488626504909 0.4415920833923599
0.2858571110599568 0.2104202159714890 0.4888794037417261
0.3050959204452222 0.6211788106683579 0.4480500385494958
