Al3 Cu3 Zr15 Ta3 
1.0
8.9890258763705848e+00 0.0000000000000000e+00 0.0000000000000000e+00 
-3.7404988506699316e-05 5.6295348244787418e+00 0.0000000000000000e+00 
2.7167830277184684e-05 1.6789330489255308e-01 9.6545576842417304e+00 
Al Cu Zr Ta 
3 3 15 3 
Cartesian
   1.4981671162    0.7643192898    2.4604543713
   0.0618767646    0.2340797288    9.6120197031
   2.9345030898    0.2340847954    9.6120197031
   5.9926534218    0.3332028071    4.6652270914
   4.2352035905    0.9792159053    7.3616195433
   7.7502542913    0.9792051499    7.3616485070
   1.4981478261    2.6667608549    0.1906456542
   3.1071093796    3.9222904002    2.2988660393
   4.3764057694    1.1054008054    2.3849846939
   1.4981606981    2.6814648858    4.6178425223
   8.8782257948    3.9222849386    2.2988756939
   5.9926689532    3.9409415013    2.8074584836
   7.6089583539    1.1053895463    2.3849846939
   5.9926419564    5.4224340656    0.0206358447
   0.0857312447    4.0872390252    7.3160886493
   2.9106408542    4.0872393610    7.3161079584
   4.4240278673    2.5976382140    5.1683260923
   4.5312598339    2.8211631253    9.3843941966
   7.4541224988    2.8211689227    9.3844038511
   5.9926862972    4.4694057202    6.8580281600
   7.5613147557    2.5976104021    5.1683454014
   0.0299412375    5.5179200376    4.8306869010
   2.9663110823    5.5179312967    4.8306869010
   1.4982043409    1.2991377570    7.1748907432
