Ni3 Cu9 Nb3 Ta9 
1.0
8.0803613991948779e+00 0.0000000000000000e+00 0.0000000000000000e+00 
-2.7948698774246157e-04 5.0642510679222710e+00 0.0000000000000000e+00 
-2.9758248252827614e-04 -8.9130313630124872e-02 9.0376227823336546e+00 
Ni Cu Nb Ta 
3 9 3 9 
Cartesian
   4.0715243680    2.4876565614    4.5907056804
   6.7016577672    2.4875859293    4.5906785675
   5.3865432317    3.1877641236    6.6760286860
   1.3466666649    0.8242548886    2.2109007741
   0.0624795595    4.8882294262    9.0000262716
   2.6297482270    4.8882242729    9.0000353092
   2.6859692062    4.9889785796    4.5534977874
   1.3464944433    0.7495801840    6.7551349982
   0.0065728889    4.9889329122    4.5535068250
   4.0222227411    0.8541102100    6.6597428897
   5.3867107192    0.0088456520    4.7408838582
   6.7510900742    0.8540544141    6.6597519273
   1.3464192786    2.2981633345    4.5161543301
   2.7545300176    3.4167544057    6.6945106245
   8.0185460948    3.4167289062    6.6945286998
   0.0144513065    3.4884992092    2.2779057094
   2.6785488023    3.4885040952    2.2779237847
   4.0174442635    1.0117228420    2.3850286523
   6.7562342790    1.0117129809    2.3850015394
   5.3866605125    3.5567058712    2.5637928309
   1.3462409854    2.2458764630    8.9634600498
   4.0344946026    2.2891878089    8.9463247170
   5.3862995243    4.7770585773    8.9225286562
   6.7383289736    2.2891982048    8.9462976041
