bcc_Al3_Cu0_Nb0_Ni0_Ta0_W18_Zr3         
   1.00000000000000     
     9.6276150232336573    0.0000000000000000    0.0000000000000000
     0.0000000000000000    6.6134013977103185   -0.0000000000000000
     0.0000000000000000   -0.0000000000000000    6.3125390577137468
   Al   W    Zr
     3    18     3
Direct
  0.1666666666666643  0.2500000000000000  0.2500000000000000
  0.5000000000000000  0.2500000000000000  0.2500000000000000
  0.8333333333333357  0.2500000000000000  0.2500000000000000
  0.0000000000000000 -0.0148468354634414  0.4921173343250726
  0.3333333333333357 -0.0148468354634414  0.4921173343250726
  0.6666666666666643 -0.0148468354634414  0.4921173343250726
  0.0000000000000000  0.5148468354634416  0.4921173343250726
  0.3333333333333357  0.5148468354634416  0.4921173343250726
  0.6666666666666643  0.5148468354634416  0.4921173343250726
  0.1666666666666643  0.7500000000000000  0.2500000000000000
  0.5000000000000000  0.7500000000000000  0.2500000000000000
  0.8333333333333357  0.7500000000000000  0.2500000000000000
  0.1666666666666643  0.7500000000000000  0.7500000000000000
  0.5000000000000000  0.7500000000000000  0.7500000000000000
  0.8333333333333357  0.7500000000000000  0.7500000000000000
  0.0000000000000000 -0.0148468354634414  0.0078826656749274
  0.3333333333333357 -0.0148468354634414  0.0078826656749274
  0.6666666666666643 -0.0148468354634414  0.0078826656749274
  0.0000000000000000  0.5148468354634416  0.0078826656749274
  0.3333333333333357  0.5148468354634416  0.0078826656749274
  0.6666666666666643  0.5148468354634416  0.0078826656749274
  0.1666666666666643  0.2500000000000000  0.7500000000000000
  0.5000000000000000  0.2500000000000000  0.7500000000000000
  0.8333333333333357  0.2500000000000000  0.7500000000000000
 
  0.00000000E+00  0.00000000E+00  0.00000000E+00
  0.00000000E+00  0.00000000E+00  0.00000000E+00
  0.00000000E+00  0.00000000E+00  0.00000000E+00
  0.00000000E+00  0.00000000E+00  0.00000000E+00
  0.00000000E+00  0.00000000E+00  0.00000000E+00
  0.00000000E+00  0.00000000E+00  0.00000000E+00
  0.00000000E+00  0.00000000E+00  0.00000000E+00
  0.00000000E+00  0.00000000E+00  0.00000000E+00
  0.00000000E+00  0.00000000E+00  0.00000000E+00
  0.00000000E+00  0.00000000E+00  0.00000000E+00
  0.00000000E+00  0.00000000E+00  0.00000000E+00
  0.00000000E+00  0.00000000E+00  0.00000000E+00
  0.00000000E+00  0.00000000E+00  0.00000000E+00
  0.00000000E+00  0.00000000E+00  0.00000000E+00
  0.00000000E+00  0.00000000E+00  0.00000000E+00
  0.00000000E+00  0.00000000E+00  0.00000000E+00
  0.00000000E+00  0.00000000E+00  0.00000000E+00
  0.00000000E+00  0.00000000E+00  0.00000000E+00
  0.00000000E+00  0.00000000E+00  0.00000000E+00
  0.00000000E+00  0.00000000E+00  0.00000000E+00
  0.00000000E+00  0.00000000E+00  0.00000000E+00
  0.00000000E+00  0.00000000E+00  0.00000000E+00
  0.00000000E+00  0.00000000E+00  0.00000000E+00
  0.00000000E+00  0.00000000E+00  0.00000000E+00
