Ni3 Cu9 Nb3 Ta3 W6 
1.0
8.1531365787563974e+00 0.0000000000000000e+00 0.0000000000000000e+00 
-2.0987655852783623e-06 4.7833045022656080e+00 0.0000000000000000e+00 
-2.5803900724782398e-06 9.6359265622965998e-02 8.8843073127628163e+00 
Ni Cu Nb Ta W 
3 9 3 3 6 
Cartesian
   0.0325603484    3.2393701579    2.2220007962
   2.6851437916    3.2393701579    2.2220007962
   1.3588551387    2.5955032541    8.8791366459
   4.0212482266    0.8892209657    2.2434563983
   3.8808499156    2.4161736481    4.4456807264
   1.3588564896    2.4217157616    4.4172953645
   5.4354270035    0.0859535385    0.2180795379
   6.8496039183    0.8892209657    2.2434563983
   6.9899914780    2.4161736481    4.4456807264
   0.1243198062    3.2184603503    6.5971756597
   2.5933871518    3.2184603503    6.5971756597
   5.4354239283    3.0327602647    6.4566881082
   5.4354257884    0.1142647586    4.4279920705
   4.0265302625    0.6846577184    6.7462276835
   6.8443113361    0.6846577184    6.7462276835
   5.4354250207    3.2193782646    2.3461412222
   4.0242867378    2.5572944150    8.8130018623
   6.8465520365    2.5572944150    8.8130018623
   0.1010466431    4.7692719367    4.3371411439
   2.6166561688    4.7692719367    4.3371411439
   0.0371687170    0.0319270886    0.1142077705
   1.3588577601    1.0014256207    2.1515304705
   2.6805392789    0.0319268016    0.1142077705
   1.3588565093    0.9056325694    6.6770366981
