Cu1                                     
   1.00000000000000     
     2.2258438152549589    0.0000000057012719    1.2850912882387344
     0.7419482824712187    2.0985462619280084    1.2850912882387344
     0.0000000000925669    0.0000000000654547    2.5701825661568081
   Cu
     1
Direct
 -0.0000000000000000 -0.0000000000000000 -0.0000000000000000
 
  0.00000000E+00  0.00000000E+00  0.00000000E+00
