Al12 Ta17 
1.0
8.6138805907545297e+00 0.0000000000000000e+00 0.0000000000000000e+00 
-2.8712127118161765e+00 8.1211085660118592e+00 0.0000000000000000e+00 
-2.8714237720665516e+00 -4.0607015007187215e+00 7.0331996175170781e+00 
Al Ta 
12 17 
Cartesian
   0.5498586195   -1.5078188776    2.6115958148
  -0.2117150548   -2.5369906872    7.0331785179
   4.1376985619   -1.8070621923    5.7136377385
  -3.0828733593    3.2986097354    5.7135603733
  -1.6048262545    2.2535962483    1.3195689122
  -1.6048667194    0.0159114354    2.6115254828
   0.5501597980    3.0157838104    0.0000105615
   1.2664691977    1.7908766246    5.7412149142
   3.4212702193    2.5527413786    4.4216952343
   2.6586683234   -0.7618846430    1.3196462774
   1.2664484993    4.0764034657    4.4216600683
   4.1378858077    5.8515240387    1.2919565705
  -0.2604238738   -0.3682618334    5.1413955180
   2.6109241937   -0.2078571769    4.1437080195
   1.8049990656   -0.7242171361    7.0331855511
   1.5867935622   -2.7605461010    4.7813871292
  -3.1316707568    0.5758814200    4.7814222952
  -3.1316475126    3.8527355403    2.8895126977
  -1.0662380298    2.3922213061    4.1436517539
  -5.7424725063    4.0603339756    7.0331855511
   1.0167764481    1.4378997731    2.4906318146
   2.6110003838    3.6923929539    1.8918040995
   2.6916828901   -4.0600798028    7.0331855511
   4.4581641157    1.3000124093    2.2518054551
   1.8010519211    6.4528586902    2.8894212661
   1.5876704726    5.5217404044    0.0000356440
  -0.2603084478    4.6364927138    2.2517702891
  -1.8507335351    5.2460372450    0.0000068969
   6.7591806721   -2.6227342059    4.5426522014
