Ta1 W1 
1.0
2.7950866134976717e+00 0.0000000000000000e+00 0.0000000000000000e+00 
-9.5568708066148356e-01 2.6266273778094122e+00 0.0000000000000000e+00 
-3.5136688471327854e-17 -1.9384023572985787e-16 4.5591468676461160e+00 
Ta W 
1 1 
Cartesian
   1.8393995328    2.6266273778    0.0000000000
   0.9196997664    1.3133136889    2.2795734338
