Nb7 Ni6
1.0
  -2.4720610000000001   -4.2817360000000004    0.0000000000000000
   2.4720610000000001   -4.2817360000000004    0.0000000000000000
   0.0000000000000000   -2.8544909999999999    8.9815030000000000
Nb Ni
7 6
direct
   0.0000000000000000    0.0000000000000000    0.0000000000000000 Nb
   0.1647839999999990    0.1647839999999990    0.5056480000000000 Nb
   0.8352160000000000    0.8352160000000000    0.4943519999999990 Nb
   0.3461559999999990    0.3461559999999990    0.9615309999999990 Nb
   0.6538440000000000    0.6538440000000000    0.0384689999999990 Nb
   0.4513890000000000    0.4513890000000000    0.6458340000000000 Nb
   0.5486110000000000    0.5486110000000000    0.3541660000000000 Nb
   0.5836290000000000    0.0902700000000000    0.2358309999999990 Ni
   0.0902700000000000    0.0902700000000000    0.2358309999999990 Ni
   0.0902700000000000    0.5836290000000000    0.2358309999999990 Ni
   0.4163710000000000    0.9097300000000000    0.7641690000000000 Ni
   0.9097300000000000    0.9097300000000000    0.7641690000000000 Ni
   0.9097300000000000    0.4163710000000000    0.7641690000000000 Ni
