POSCAR file written by OVITO Basic 3.9.4
1
7.212586 0.0 0.0
-0.0419264767 7.2818902023 0.0
-0.0989663154 -0.2868702347 15.9403603359
Cu W Ni Zr Nb 
10 19 5 1 26 
Cartesian
5.3816759839 6.5262067744 11.099776
2.5942780772 3.3089512954 15.901236
2.5310587433 6.0726217092 15.399706
3.7711162005 5.754778616 12.466346
4.3938304973 3.5250425083 11.584146
5.6818135326 4.8125760579 12.531976
0.7242094852 3.3954354302 11.406806
6.0943013651 4.2813220452 10.274486
0.3680906184 2.7985837175 9.299286
4.0362497557 0.9019673829 12.105256
3.39203 7.17043 3.51943
1.54683 1.71114 7.02532
5.18459 1.75199 3.51272
5.15299 -0.0576466 5.28572
7.0156 1.77813 1.75762
6.88712 5.3456 5.27153
0.2886961608 5.5281846237 11.706586
3.8037287368 4.487188435 14.274056
0.8528265009 5.0757510921 9.238152
2.1312610639 7.0117270394 13.055776
1.8102079057 1.3995698151 15.142756
4.6579708261 1.9970469296 13.558856
5.743441776 2.15731855 10.755986
6.4801649478 4.2032361632 14.778626
0.0725796719 0.1864412113 9.929656
6.4624990205 1.3755861524 15.091086
2.5223511383 2.4824679245 13.173756
2.7764242028 4.40758372 10.717596
5.1433788239 6.7539920082 13.643096
-0.123069 3.57183 3.5015
1.62162 -0.0539414 5.28061
1.68975 3.58086 1.77517
1.59132 3.54209 5.27795
5.24484 3.5902 1.75547
3.35345 5.34556 5.27613
-0.143276 7.1672 3.52262
3.31851 -0.0761109 7.03199
3.30537 3.51675 7.02773
3.41351 3.56368 3.51171
1.64894 1.76085 3.51434
1.51795 5.3307 7.02812
1.6392 5.36197 3.51396
5.06766 5.3264 7.03182
5.18359 5.37706 3.51711
1.68713 7.18675 1.76521
5.25424 -0.0176004 1.75958
5.14104 3.5472 5.26854
-0.158986 1.73901 5.27192
-0.0813357 5.38916 1.76429
3.4728 1.78159 1.75769
3.38015 1.73679 5.27547
3.45634 5.39087 1.75677
0.1983974287 2.6955016175 13.201686
2.4025371931 1.722614663 10.416096
0.3325591541 0.7018268941 12.363936
4.5986568964 3.351567961 9.03199
4.1281955075 0.9398498561 15.770186
4.9743760711 5.565132965 15.943596
2.8164328997 6.8650157185 10.568536
1.5546691092 4.6066898141 13.416246
0.0970102415 6.3858388145 14.659966
