Converted from final.data
1.0
15.1534072676798601 0.0000000000000000 0.0000000000000000
0.0890283659074476 34.6801092331972995 0.0000000000000000
-0.1491063109681822 -0.1679846651673843 14.9215693318791640
Al Zr W Ta Ni Cu
3 23 23 6 3 3
Direct
0.3637658982354917 0.1441870735250037 0.5204011659843997
0.1274270880017253 0.0909166772778402 0.3949775435368804
0.7667010016605055 0.0236234218566782 0.1211001468912404
0.5822295810411329 0.1181825540835581 0.2627849604175239
0.5685581566683682 0.1546061116519995 0.4798957794241226
0.1817594902005399 0.4014554526552591 0.6057737103506270
0.1393091512115648 0.3129846193218122 0.6317832318958747
0.1201580655713753 0.3146369837298660 0.0853282567490574
0.1983818478845242 0.3403003237046262 0.8197222806238093
0.3494232668952812 0.2437491118969078 0.4427426175787024
0.0231032553791561 0.4760779322044008 0.1187198358194550
-0.0227296211784456 0.1653169321328010 0.6217470998475522
0.0124334848485653 0.2395741450182754 0.0841043007330912
0.4176743525939617 0.1676573827938601 0.3366340473595349
0.6046426077495524 0.3407938178183755 0.1860883943850411
0.3354044738351562 0.3274105077817791 0.3289584284564298
0.8858810859960015 0.4231605972402472 0.2630669174358854
0.2099695245707947 0.1876618759974551 0.3778912821632192
0.1507866609509052 0.4542618281763713 0.2515736287460569
0.0838549254237352 0.1838796831407772 0.1996257928643257
0.2196513968768570 0.1103980277465345 0.2507911895991837
0.5718214353002143 -0.0097401757363534 0.0384937145789019
0.7099462360523227 0.1928268453111650 0.1823198553684921
0.8188031520244529 0.3811219570990805 0.4285513133157868
0.0496172900225170 0.4045499824767028 0.4252679905225461
0.3328818264168680 0.0377987515464525 0.1894166524968459
0.2246187510214849 0.1543894799901459 0.0908776683251040
0.3584672137913990 0.4821474330869209 0.2009409862504048
0.4443554775173692 0.3228797536003152 0.1390351686705626
0.4486699427569653 0.3659973929490787 -0.0204511536507440
0.0077146988844510 0.4071511643257141 0.2300891775073118
0.4681300407027590 0.3379318727472429 0.4760160817400292
0.4115436986163151 0.4001186306230011 0.4380093368428376
0.4832062170696896 0.3705416863207794 0.2929592472016108
0.1280514925910192 0.1147214984734502 0.6110917043917223
0.3632859524408637 0.0038650877102184 0.4405016369318553
0.4326128148011849 0.0778616433148571 0.3170889376729837
0.3864541912958467 0.1657177836164683 0.0503273722407235
0.3980354464392993 0.1187093632502256 0.1796848355320382
0.2242359149412407 -0.0239661747049947 0.2443483738173980
0.1816497048789119 0.0047687513542960 0.4523522499733462
0.4393769129302543 0.0612853610047558 0.5182725254514537
0.5484838587624946 -0.0340338039308620 0.4335519699163238
0.2304609583012031 -0.0540537733479086 0.5460959427573921
0.3192572152881784 0.0788704620971316 0.4387293016432317
0.1379359230051212 0.3310008502513053 0.4210747961411792
0.4131915405497206 0.2488540874062141 0.2552894655209944
0.3287650234074031 0.4112092924647627 0.2697454506727386
0.1280261261126239 0.0328561780131938 0.2800284862075290
0.2381238868787561 0.3975376108781727 0.4316252456543445
0.1123016562468921 0.0365095957581381 0.1138575178776413
0.1133989087069144 0.9940614816451332 0.3963410588397238
0.9448950576822196 0.4172104301043623 0.0825517887157522
0.1589931764552972 0.3596448531741363 0.2558127212148197
0.5678093492367124 0.2167459712161921 0.3246480069628940
0.2794872503119741 -0.0493036598416265 0.3767252562009841
0.2338950860375509 0.0862005796974476 0.0758762258858817
0.2208876242988388 0.0394609101191585 -0.0305434914490686
0.0543414941263042 0.1448450950817115 0.4603369758401716
0.6100617937141863 0.1424304616039588 0.0900819960562692
0.1316323898266339 0.2640911574570112 0.7809246992892704
