POSCAR file written by OVITO Basic 3.9.4
1
14.3783437063 0.0 0.0
0.0833584848 7.3180604516 0.0
-0.1981712123 0.0260473528 7.5697467019
Al W Ni Zr Ta 
4 32 7 15 2 
Cartesian
7.3383704232 3.2846900754 0.395759735
10.1529992879 6.8720000484 7.5738588153
9.9954452678 3.2678753666 0.4052248517
9.010967839 1.4109053007 0.2750839703
-0.0452019 3.64486 3.67632
3.75612 7.26074 0.00256809
3.66095 7.26893 3.67485
3.70459 3.63541 0.00326209
3.62046 3.64275 3.66882
1.85988 1.81401 0.00147376
1.76363 1.83064 3.67225
1.89246 5.44533 0.0040183
1.8043 5.46978 3.66989
5.3362 1.84234 7.33839
5.57947 5.44688 0.012302
5.47495 5.44785 3.66538
1.79578 0.0149979 1.83951
1.84012 3.63772 1.83194
1.73346 3.65354 5.51729
5.46537 0.00682605 1.8425
5.40729 3.64955 5.5116
0.0141373 5.4542 1.84041
-0.0792508 5.45304 5.51133
3.64405 1.82101 1.84364
3.54797 1.83668 5.50562
3.68161 5.45319 1.84032
3.59133 5.46558 5.51956
8.4950274725 5.5956572882 7.382929255
8.5232643455 5.246505073 3.630661701
11.2482388436 1.7674031174 7.4671837893
11.4959624482 4.6523252974 3.911145322
8.7105301926 0.2292211025 5.5854957799
12.6332365893 5.3343307324 1.9302789753
12.7289615565 5.4046415034 5.7852128836
10.1260510599 1.7756832482 5.8428623379
10.0578267007 5.5489308218 2.3496797785
8.8493764269 1.6695388043 3.7992730576
11.4292747024 2.1364618121 3.9354898396
8.7033082834 3.7843284288 1.8668707128
11.5273684499 3.3500737526 1.9081438761
11.5525549208 3.4391956946 6.0416179354
7.6473312914 1.7092914711 6.0912480192
10.0995844404 1.8080199727 1.7232585164
5.42532 1.82277 3.66122
1.69841 0.0201086 5.51413
5.45535 7.27998 5.50098
12.7556727803 0.0165684516 0.5539534883
7.3172218315 7.122942858 3.8648907385
7.5127435896 3.1285199611 4.0460937342
10.424962798 -0.0331251956 4.2511604944
9.9583761794 3.4300111806 3.5921809971
11.2185009004 5.0257986021 0.2920295865
8.7668557798 7.1347567496 2.2549918795
8.9933829002 3.6381097595 5.9599308271
11.3845777969 0.3742540249 2.5147417453
12.0111437143 0.1740818624 5.939728969
7.6433632906 1.9267252947 2.1287481666
10.1097627655 5.4647226953 5.5439464394
-0.0916542 0.0186043 3.67627
5.49486 3.63837 1.83861
