Zr1 
1.0
3.1221191441754308e+00 0.0000000000000000e+00 0.0000000000000000e+00 
-1.0407063661912057e+00 2.9435621621396511e+00 0.0000000000000000e+00 
-1.0407063899874549e+00 -1.4717810822875288e+00 2.5491996021972816e+00 
Zr 
1 
Cartesian
   0.0000001919   -0.0000000000    0.0000000000
