Ni8 Cu8 Zr12 Nb4 
1.0
6.1203594068182277e+00 0.0000000000000000e+00 0.0000000000000000e+00 
5.1592292069975121e-07 9.3016556444497809e+00 0.0000000000000000e+00 
7.0292516512483452e-08 -1.1255885645227009e-07 9.3018797097795769e+00 
Ni Cu Zr Nb 
8 8 12 4 
Cartesian
   1.4444050948    4.6354521571    2.3408459346
   0.0856823770    6.9916173418    2.3408459346
   0.0856829108    4.6354520731    9.2865037026
   0.0849035015    0.0727203797    4.7236619505
   1.4451883867    2.2526935101    4.7236619505
   0.0849030269    2.2526934837    6.9036876868
   1.4451882822    0.0727204463    6.9036876868
   1.4444052780    6.9916172577    9.2865037026
   0.1311270115    2.3242883814    2.4292044900
   1.3989611698    0.0011241315    2.4292044900
   0.1311271515    4.5470957022    4.6520653823
   1.3989613498    2.3242882995    9.1981451473
   1.3989614563    4.5470956741    6.9752842549
   0.1311269338    0.0011239194    9.1981451473
   1.3989615793    7.0799737408    4.6520653823
   0.1311266976    7.0799737127    6.9752842549
   2.8424113436    2.3482029387    2.3778953215
   2.8424114854    4.5984036350    4.6281502496
   4.8723510766    4.6776258643    2.2986712120
   4.8080385958    9.2788665593    2.3778953215
   2.7780988615    6.9494436356    2.2986712120
   2.7780987184    4.6776258918    0.0268008549
   4.8080384880    7.0286658085    4.6281502496
   4.8723511855    6.9494436631    0.0268004828
   4.8080382633    2.3482028555    9.2494543157
   4.8080383711    4.5984036063    6.9991993876
   2.8424117799    9.2788664762    9.2494543157
   2.8424116381    7.0286657799    6.9991993876
   2.8787845298    0.0536731936    4.7046117008
   2.8787846696    2.2717432743    6.9227379364
   4.7716649288    2.2717433011    4.7046117008
   4.7716648225    0.0536738179    6.9227379364
