Zr16 Nb4 Ta8 W4 
1.0
9.4652852438556767e+00 0.0000000000000000e+00 0.0000000000000000e+00 
-5.0902316863777157e-08 9.4697484153253395e+00 0.0000000000000000e+00 
-6.4279165154039803e-08 -3.2694529476527857e-07 7.0927062714160245e+00 
Zr Nb Ta W 
16 4 8 4 
Cartesian
   0.0199514663    2.3903538084    1.8787585934
   2.3463684135    2.3903535729    6.9871242459
   4.7671814161    0.0176315637    3.4906612061
   7.0644250628    2.3498042714    3.4906612061
   4.7671813864    2.3498041845    5.3752216332
   7.0644250582    0.0176313821    5.3752216332
   2.3463684219    9.4468315376    1.8787585934
   0.0330833880    7.0889778166    1.9327624590
   2.3332400960    4.7482075243    1.9327624590
   4.6825144163    7.0874058415    1.8657009212
   0.0199517607    9.4468313021    6.9871242459
   0.0330833552    4.7482072938    6.9331203803
   2.3332400381    7.0889775861    6.9331203803
   4.6825143823    4.7497792690    7.0001819181
   7.1490920411    4.7497795057    1.8657009212
   7.1490825167    7.0874056048    7.0001819181
   2.3756918973    2.4025602320    3.6589924040
   9.4559145514    2.4025601607    5.2068833426
   2.3756918455    9.4346248784    5.2068904353
   9.4559145276    9.4346249498    3.6589994967
   4.7175265330    2.3863954610    1.7179953131
   4.7182742604    4.7347698720    3.6533324244
   7.1140799801    2.3863955376    0.0551782759
   7.1133321632    4.7347698002    5.2125504149
   4.7175265101    9.4507899765    0.0551775666
   4.7182742335    7.1024152384    5.2125504149
   7.1140799271    9.4507898998    1.7179953131
   7.1133321646    7.1024153103    3.6533324244
   2.3381525500    4.7734631964    5.1213594903
   0.0281659790    4.7734632598    3.7445233489
   2.3381525502    7.0637313838    3.7445233489
   0.0281660489    7.0637313204    5.1213594903
