Ta1 W1 
1.0
2.8025613822377080e+00 0.0000000000000000e+00 0.0000000000000000e+00 
-9.4840906657878599e-01 2.6378926112238053e+00 0.0000000000000000e+00 
3.0158020996538449e-09 -3.7289720872809624e-09 4.5429742092265162e+00 
Ta W 
1 1 
Cartesian
   1.8541523157    2.6378926112    0.0000000009
   0.9270761593    1.3189463037    2.2714871046
