Al2 Ni8 Zr10 
1.0
6.9007923660142199e+00 0.0000000000000000e+00 0.0000000000000000e+00 
1.3694732145449509e-12 6.9007923660108386e+00 0.0000000000000000e+00 
1.3098303387679976e-15 -1.5768455538471798e-15 7.1882889769101777e+00 
Al Ni Zr 
2 8 10 
Cartesian
   3.4503961830    3.4503961830    1.7970722442
   3.4503961830    3.4503961830    5.3912167327
   4.3388110930    0.9162251032    5.3912167327
   0.9162251032    2.5619812730    5.3912167327
   5.9845672628    4.3388110930    5.3912167327
   5.9845672628    4.3388110930    1.7970722442
   2.5619812730    5.9845672628    5.3912167327
   2.5619812730    5.9845672628    1.7970722442
   4.3388110930    0.9162251032    1.7970722442
   0.9162251032    2.5619812730    1.7970722442
   2.3700909397    1.2498715133    0.0000000000
   5.6509208527    2.3700909397    3.5941444885
   1.2498715133    4.5307014263    3.5941444885
   6.9007923660    6.9007923660    5.3912167327
   1.2498715133    4.5307014263    0.0000000000
   4.5307014263    5.6509208527    0.0000000000
   2.3700909397    1.2498715133    3.5941444885
   4.5307014263    5.6509208527    3.5941444885
   5.6509208527    2.3700909397    0.0000000000
   6.9007923660    6.9007923660    1.7970722442
