fcc_Al4_Cu12_Nb8_Ni4_Ta4_W0_Zr0         
   1.00000000000000     
     7.5701453709085555    0.0000000000000000    0.0000000000000000
     0.0000000000000000    7.7875068357672248    0.0000000000000000
     0.0000000000000000    0.0000000000000000    8.0120255769971127
   Al   Cu   Nb   Ni   Ta
     4    12     8     4     4
Direct
 -0.0163647974833132  0.4912306778826757  0.0189414848534924
  0.2663647974833132  0.7587693221173244  0.0189414848534924
 -0.0163647974833132  0.7587693221173244  0.2310585151465075
  0.2663647974833132  0.4912306778826757  0.2310585151465075
  0.5124333573974260  0.0039582953336133  0.0098563087083562
  0.7375666426025740  0.2460417046663868  0.0098563087083562
  0.5124333573974260  0.2460417046663868  0.2401436912916438
  0.7375666426025740  0.0039582953336133  0.2401436912916438
  0.5085234713915170  0.0093013315566910  0.4887170745262537
  0.7414765286084830  0.2406986684433089  0.4887170745262537
  0.5085234713915170  0.2406986684433089  0.7612829254737465
  0.7414765286084830  0.0093013315566910  0.7612829254737465
 -0.0115933550848695  0.0010037847554878  0.0206190811072272
  0.2615933550848694  0.2489962152445121  0.0206190811072272
 -0.0115933550848695  0.2489962152445121  0.2293809188927728
  0.2615933550848694  0.0010037847554878  0.2293809188927728
  0.5138584132692154  0.4964065733603749  0.4829710386166162
  0.7361415867307846  0.7535934266396253  0.4829710386166162
  0.5138584132692154  0.7535934266396253  0.7670289613833836
  0.7361415867307846  0.4964065733603749  0.7670289613833836
 -0.0040511097646864  0.0075960669082308  0.4840329650702095
  0.2540511097646863  0.2424039330917693  0.4840329650702095
 -0.0040511097646864  0.2424039330917693  0.7659670349297906
  0.2540511097646863  0.0075960669082308  0.7659670349297906
  0.4998903066382929  0.5026153162260500  0.0169801582413277
  0.7501096933617071  0.7473846837739500  0.0169801582413277
  0.4998903066382929  0.7473846837739500  0.2330198417586722
  0.7501096933617071  0.5026153162260500  0.2330198417586722
 -0.0101492301073120  0.4926480909603254  0.4786699404701017
  0.2601492301073119  0.7573519090396749  0.4786699404701017
 -0.0101492301073120  0.7573519090396749  0.7713300595298983
  0.2601492301073119  0.4926480909603254  0.7713300595298983
 
  0.00000000E+00  0.00000000E+00  0.00000000E+00
  0.00000000E+00  0.00000000E+00  0.00000000E+00
  0.00000000E+00  0.00000000E+00  0.00000000E+00
  0.00000000E+00  0.00000000E+00  0.00000000E+00
  0.00000000E+00  0.00000000E+00  0.00000000E+00
  0.00000000E+00  0.00000000E+00  0.00000000E+00
  0.00000000E+00  0.00000000E+00  0.00000000E+00
  0.00000000E+00  0.00000000E+00  0.00000000E+00
  0.00000000E+00  0.00000000E+00  0.00000000E+00
  0.00000000E+00  0.00000000E+00  0.00000000E+00
  0.00000000E+00  0.00000000E+00  0.00000000E+00
  0.00000000E+00  0.00000000E+00  0.00000000E+00
  0.00000000E+00  0.00000000E+00  0.00000000E+00
  0.00000000E+00  0.00000000E+00  0.00000000E+00
  0.00000000E+00  0.00000000E+00  0.00000000E+00
  0.00000000E+00  0.00000000E+00  0.00000000E+00
  0.00000000E+00  0.00000000E+00  0.00000000E+00
  0.00000000E+00  0.00000000E+00  0.00000000E+00
  0.00000000E+00  0.00000000E+00  0.00000000E+00
  0.00000000E+00  0.00000000E+00  0.00000000E+00
  0.00000000E+00  0.00000000E+00  0.00000000E+00
  0.00000000E+00  0.00000000E+00  0.00000000E+00
  0.00000000E+00  0.00000000E+00  0.00000000E+00
  0.00000000E+00  0.00000000E+00  0.00000000E+00
  0.00000000E+00  0.00000000E+00  0.00000000E+00
  0.00000000E+00  0.00000000E+00  0.00000000E+00
  0.00000000E+00  0.00000000E+00  0.00000000E+00
  0.00000000E+00  0.00000000E+00  0.00000000E+00
  0.00000000E+00  0.00000000E+00  0.00000000E+00
  0.00000000E+00  0.00000000E+00  0.00000000E+00
  0.00000000E+00  0.00000000E+00  0.00000000E+00
  0.00000000E+00  0.00000000E+00  0.00000000E+00
