Al6 Zr10 
1.0
8.2769873209101021e+00 0.0000000000000000e+00 0.0000000000000000e+00 
-4.1384679709155234e+00 7.1680733524888032e+00 0.0000000000000000e+00 
-8.2271042172176046e-08 -9.7029645941373487e-09 5.6384311530011493e+00 
Al Zr 
6 10 
Cartesian
  -0.8486718211    7.1680733452    4.2288233648
  -1.6441648607    2.8479615525    4.2288233648
  -2.4941206643    4.3201046222    1.4096077883
   2.4943310736    4.3201046173    4.2288233648
   1.6443702878    2.8479687255    1.4096077883
   4.9878767786    0.0000022495    1.4096077883
  -0.9947246653    1.7231044785    1.4096077883
  -3.1435367437    5.4449975366    4.2288233648
   0.0001080910    4.7787251161    5.6384255146
   0.0001081321    4.7787251209    2.8192212149
   1.9886526338    0.0000019901    1.4096077883
   0.9949413745    1.7230614652    4.2288233648
   3.1437848178    5.4449832053    1.4096077883
   2.1490129539    7.1680733452    4.2288233648
   4.1385849523    2.3893482219    2.8192212149
   4.1385931882    2.3893482170    5.6384255146
