Al2                                     
   1.00000000000000     
     2.8580466801926496   -0.0000000092991445   -0.0000000000000000
    -1.4290238562549393    2.4751415832232531    0.0000000000000000
    -0.0000000000000000    0.0000000000000000    4.7037678587501306
   Al
     2
Direct
 -0.0000000000000000  0.0000000000000000 -0.0000000000000000
  0.6666669999999968  0.3333330000000032  0.5000000000000000
 
  0.00000000E+00  0.00000000E+00  0.00000000E+00
  0.00000000E+00  0.00000000E+00  0.00000000E+00
