Al2 Cu6 
1.0
5.2136013792053735e+00 0.0000000000000000e+00 0.0000000000000000e+00 
-2.6068016386119348e+00 4.5151132396967633e+00 0.0000000000000000e+00 
0.0000000000000000e+00 0.0000000000000000e+00 4.2284917909028197e+00 
Al Cu 
2 6 
Cartesian
  -0.0000032395    3.0100769982    3.1713688432
   2.6068029801    1.5050362415    1.0571229477
  -0.0000029211    1.4954912921    1.0571229477
   1.3116657179    3.7673698512    1.0571229477
  -1.3116725152    3.7673698512    1.0571229477
   2.6068026617    3.0196219476    3.1713688432
   1.2951340227    0.7477433885    3.1713688432
   3.9184722558    0.7477433885    3.1713688432
