Cu-Zr from LAMMPS dump
1.0
17.6167349986393234 0.0000000000000000 0.0000000000000000
5.0292905022377861 20.0965446885721732 0.0000000000000000
-5.0757145926836911 8.7024158029519363 10.3200353448571889
Cu Zr
231 25
Direct
0.2160860000000000 0.0482629000000000 0.3920800000000000
0.1889580000000000 0.1822670000000000 0.2008950000000000
0.1177640000000000 0.1548020000000000 0.0593172000000000
0.0294437000000000 0.0018153800000000 0.1714780000000000
0.1004550000000000 0.1567800000000000 0.3696040000000000
0.2287100000000000 0.1944600000000000 0.3640700000000000
0.3030590000000000 0.0230934000000000 0.3045080000000000
0.0811008000000000 0.0254314000000000 0.4107020000000000
0.1734080000000000 0.0070013300000000 0.1722500000000000
0.3044920000000000 0.2630850000000000 0.0337330000000000
0.4215730000000000 0.0641028000000000 0.1869150000000000
0.3529820000000000 0.1394620000000000 0.2628490000000000
0.3869390000000000 0.1453920000000000 0.4830380000000000
0.2461420000000000 0.1525940000000000 0.0516151000000000
0.3977850000000000 0.0180297000000000 0.4975340000000000
0.2764680000000000 0.2479260000000000 0.4765920000000000
0.1336770000000000 0.4344190000000000 0.3868460000000000
0.0299957000000000 0.4282320000000000 0.4621830000000000
0.0375243000000000 0.4647820000000000 0.0622957000000000
0.2036200000000000 0.3473180000000000 0.2377860000000000
0.0602457000000000 0.3095310000000000 0.1308520000000000
0.1720230000000000 0.4810170000000000 0.1976980000000000
0.4044580000000000 0.2639010000000000 0.2321530000000000
0.3634660000000000 0.4788870000000000 0.0729800000000000
0.2213260000000000 0.3102940000000000 0.1130780000000000
0.3339460000000000 0.3893680000000000 0.2044990000000000
0.3310020000000000 0.4121270000000000 0.3837260000000000
0.3999240000000000 0.2700990000000000 0.4443140000000000
0.4939050000000000 0.3216050000000000 0.1991030000000000
0.2181990000000000 0.0530781000000000 0.8579230000000000
0.1338860000000000 0.0920227000000000 0.6417820000000000
0.1616920000000000 0.0834644000000000 0.9736120000000000
0.0433562000000000 0.0790661000000000 0.8046620000000000
0.2630600000000000 0.1506090000000000 0.8548720000000000
0.2016420000000000 0.0108388000000000 0.5863850000000000
0.1431640000000000 0.2932920000000000 0.5214259999999999
0.1869420000000000 0.1778130000000000 0.5234839999999999
0.3521860000000000 0.0383127000000000 0.6394530000000000
0.3059410000000000 0.1050830000000000 0.7459550000000000
0.3453820000000000 0.2187010000000000 0.7432490000000000
0.4110610000000000 0.2735040000000000 0.6224740000000000
0.4659030000000000 0.0634229000000000 0.9155799999999999
0.0631629000000000 0.4333150000000000 0.9311840000000000
0.0426624000000000 0.3045850000000000 0.9401400000000000
0.0751964000000000 0.2649050000000000 0.8222270000000000
0.0790884000000000 0.4589220000000000 0.6056210000000000
0.1323680000000000 0.3727390000000000 0.8605040000000000
0.1492300000000000 0.3150590000000000 0.7136700000000000
0.3763920000000000 0.1712480000000000 0.9495390000000000
0.2246270000000000 0.3824450000000000 0.6085040000000000
0.2436440000000000 0.3844000000000000 0.8141710000000000
0.3946400000000000 0.2940520000000000 0.8297099999999999
0.4962140000000000 0.3589750000000000 0.8861220000000000
0.3383440000000000 0.4066800000000000 0.5808730000000000
0.4460790000000000 0.4712080000000000 0.5977470000000000
0.2800620000000000 0.4158990000000000 0.9975050000000000
0.3505820000000000 0.4886820000000000 0.7029770000000000
0.4667870000000000 0.4368230000000000 0.9874820000000000
0.4975470000000000 0.3635800000000000 0.5420160000000001
0.4009400000000000 0.3375400000000000 0.9913500000000000
0.0302294000000000 0.5955320000000000 0.2062840000000000
0.1081080000000000 0.5392640000000000 0.4299350000000000
0.1951930000000000 0.5330630000000000 0.3296170000000000
0.2036330000000000 0.6715680000000001 0.1990940000000000
0.1810080000000000 0.6869590000000000 0.0170262000000000
0.0615427000000000 0.7111229999999999 0.1880730000000000
0.2551940000000000 0.5700240000000000 0.4754050000000000
0.0113006000000000 0.5934920000000000 0.0067175000000000
0.1156760000000000 0.6777310000000000 0.3957460000000000
0.2705370000000000 0.5298470000000000 0.1561710000000000
0.2854460000000000 0.7039020000000000 0.3488440000000000
0.2609110000000000 0.7966180000000000 0.1222830000000000
0.3816440000000000 0.5904890000000000 0.0730830000000000
0.3546570000000000 0.6413510000000000 0.1893250000000000
0.4279070000000000 0.7398439999999999 0.2637410000000000
0.4398540000000000 0.6063950000000000 0.4193040000000000
0.4963050000000000 0.7994890000000000 0.0577631000000000
0.3551820000000000 0.5202390000000000 0.3666910000000000
0.3482240000000000 0.7986760000000001 0.0353725000000000
0.1878430000000000 0.9328790000000000 0.3801030000000000
0.0240989000000000 0.9302280000000001 0.3408090000000000
0.0605612000000000 0.8457240000000000 0.1201520000000000
0.1724210000000000 0.8637520000000000 0.3009010000000000
0.0589157000000000 0.8232990000000000 0.3143770000000000
0.1568520000000000 0.9319660000000000 0.0671495000000000
0.3129040000000000 0.8328940000000000 0.2977100000000000
0.4725600000000000 0.9432090000000000 0.4346580000000000
0.3427490000000000 0.8701330000000000 0.4295610000000000
0.4752370000000000 0.9427940000000000 0.1746930000000000
0.3253210000000000 0.8950470000000000 0.1029370000000000
0.4693900000000000 0.8250080000000000 0.3473270000000000
0.3332820000000000 0.9871320000000000 0.1822740000000000
0.2184430000000000 0.6582220000000000 0.7285110000000000
0.0930802000000000 0.7006250000000001 0.5343740000000000
0.0523433000000000 0.6607560000000000 0.7191940000000000
0.2866560000000000 0.5131540000000000 0.8237690000000000
0.1736440000000000 0.7934840000000000 0.5363190000000000
0.1891130000000000 0.5309030000000000 0.6120980000000000
0.1267680000000000 0.5377610000000000 0.7578620000000000
0.2301230000000000 0.6336260000000000 0.9204639999999999
0.4627670000000000 0.7561450000000000 0.6590940000000000
0.3622740000000000 0.6257410000000000 0.7669620000000000
0.3301110000000000 0.7292510000000000 0.5616240000000000
0.3965930000000000 0.6046570000000000 0.5775860000000000
0.2502160000000000 0.6520720000000000 0.5874500000000000
0.0741696000000000 0.8786560000000000 0.7625840000000000
0.0408070000000000 0.7419030000000000 0.8229720000000000
0.2268680000000000 0.7750390000000000 0.9183540000000000
0.1117240000000000 0.9671090000000000 0.6427560000000000
0.0999554000000000 0.8242080000000001 0.9944480000000000
0.2968540000000000 0.9692070000000000 0.7951940000000000
0.3110330000000000 0.7121990000000000 0.8500900000000000
0.4135870000000000 0.7476940000000000 0.7912530000000000
0.2798510000000000 0.8548990000000000 0.7772470000000000
0.3308800000000000 0.9034240000000000 0.5987410000000000
0.2191410000000000 0.8707859999999999 0.5992650000000000
0.4317490000000000 0.7133130000000000 0.9956630000000000
0.4331660000000000 0.9402900000000000 0.9892890000000000
0.4924510000000000 0.8731370000000001 0.6618230000000001
0.6979690000000000 0.0801364000000000 0.3099970000000000
0.6729619999999999 0.0492939000000000 0.0966653000000000
0.5992750000000000 0.2485120000000000 0.1148430000000000
0.5478290000000000 0.0329431000000000 0.1316950000000000
0.5547410000000000 0.0223787000000000 0.3821260000000000
0.7883910000000000 0.1551650000000000 0.2942900000000000
0.6515800000000000 0.1651430000000000 0.3673930000000000
0.6596919999999999 0.3265880000000000 0.0293283000000000
0.5104620000000000 0.1073680000000000 0.4684760000000000
0.5361359999999999 0.1786260000000000 0.0363149000000000
0.5197220000000000 0.1719090000000000 0.2060720000000000
0.8302750000000000 0.0322598000000000 0.2949670000000000
0.9165750000000000 0.1041690000000000 0.2317960000000000
0.8443079999999999 0.2643160000000000 0.0546597000000000
0.9535490000000000 0.2693670000000000 0.1987760000000000
0.8669760000000000 0.1119730000000000 0.0502227000000000
0.6557870000000000 0.4057680000000000 0.4283490000000000
0.6459440000000000 0.3066510000000000 0.2120850000000000
0.6281190000000000 0.3075150000000000 0.3678100000000000
0.5251590000000000 0.4545880000000000 0.1544040000000000
0.8016030000000000 0.1920100000000000 0.4341590000000000
0.5419060000000000 0.2325970000000000 0.4287760000000000
0.5969110000000000 0.4550170000000000 0.0529431000000000
0.6950510000000000 0.4916280000000000 0.4771180000000000
0.8510740000000000 0.3929890000000000 0.1990250000000000
0.8986750000000000 0.4416980000000000 0.0070441700000000
0.9103190000000000 0.4452390000000000 0.2912600000000000
0.7987900000000000 0.2891490000000000 0.1971020000000000
0.9051090000000001 0.3489430000000000 0.4528890000000000
0.8031250000000000 0.3912590000000000 0.4927620000000000
0.9939240000000000 0.2550370000000000 0.4256350000000000
0.6931349999999999 0.1255380000000000 0.9125280000000000
0.6407500000000000 0.2771100000000000 0.5747030000000000
0.6408380000000000 0.0446547000000000 0.6769610000000000
0.7958210000000000 0.1347240000000000 0.8493600000000000
0.5717150000000000 0.1697760000000000 0.6702720000000000
0.6296020000000000 0.0368512000000000 0.9296170000000000
0.5174840000000001 0.1704730000000000 0.8654190000000000
0.6859010000000000 0.0158085000000000 0.5477510000000000
0.8285040000000000 0.0487932000000000 0.5120660000000000
0.9491290000000000 0.2378600000000000 0.7340670000000000
0.7752420000000000 0.2683350000000000 0.5358710000000000
0.9186480000000000 0.2016450000000000 0.5506750000000000
0.9954650000000000 0.0236829000000000 0.6661120000000000
0.9673810000000000 0.1094950000000000 0.9232230000000000
0.5225260000000000 0.3059680000000000 0.7706990000000000
0.6625210000000000 0.2637990000000000 0.7594780000000000
0.5994780000000000 0.3832450000000000 0.7958610000000000
0.5018560000000000 0.4858340000000000 0.8257989999999999
0.9786060000000000 0.3708260000000000 0.6116000000000000
0.9339010000000000 0.2506790000000000 0.9012670000000000
0.7642070000000000 0.3216750000000000 0.6756850000000000
0.7702630000000000 0.3178280000000000 0.8349810000000000
0.9050390000000000 0.3500970000000000 0.9579140000000000
0.7345330000000000 0.4790780000000000 0.7094190000000000
0.8915410000000000 0.4802270000000000 0.7939430000000000
0.6011750000000000 0.6712700000000000 0.1015620000000000
0.5141730000000000 0.5409200000000000 0.3160790000000000
0.6713850000000000 0.6825090000000000 0.2552910000000000
0.6054110000000000 0.6072510000000000 0.4971200000000000
0.6334700000000000 0.5313290000000001 0.2495650000000000
0.6397190000000000 0.7899410000000000 0.0345954000000000
0.5622180000000000 0.6437300000000000 0.2976320000000000
0.6996370000000000 0.5255410000000000 0.1202660000000000
0.7838650000000000 0.5681560000000000 0.4933150000000000
0.9111290000000000 0.5416220000000000 0.4672300000000000
0.7937830000000000 0.7055610000000000 0.2124450000000000
0.7381100000000000 0.6685660000000000 0.0563649000000000
0.9053949999999999 0.5977000000000000 0.2464340000000000
0.8191290000000000 0.5535490000000000 0.0167395000000000
0.9485910000000000 0.6835690000000000 0.2927330000000000
0.8686410000000000 0.6603210000000000 0.0088802300000000
0.9881529999999999 0.5057570000000000 0.1900740000000000
0.6831290000000000 0.8245040000000000 0.3779760000000000
0.5923780000000000 0.9033800000000000 0.3968410000000000
0.6906530000000000 0.9494160000000000 0.3339240000000000
0.5701520000000000 0.7896250000000000 0.2752310000000000
0.6363290000000000 0.7249989999999999 0.4942320000000000
0.9299780000000000 0.9912680000000000 0.0175045000000000
0.9395640000000000 0.7855510000000000 0.3475570000000000
0.8056780000000000 0.7355630000000000 0.3599400000000000
0.9413540000000000 0.8296060000000000 0.1677990000000000
0.9678110000000000 0.8577250000000000 0.4540550000000000
0.7816670000000000 0.8552440000000000 0.1343800000000000
0.7758740000000000 0.8828240000000001 0.2736390000000000
0.9765020000000000 0.9884500000000001 0.4923420000000000
0.6820880000000000 0.6061850000000000 0.7019650000000000
0.5850890000000000 0.7706440000000000 0.6057060000000000
0.6644290000000000 0.6427460000000000 0.8331420000000000
0.5378960000000000 0.6025180000000000 0.8038200000000000
0.5637980000000000 0.5297710000000000 0.6509990000000000
0.5106820000000000 0.5961940000000000 0.9686240000000000
0.9705310000000000 0.5915319999999999 0.7501900000000000
0.9760680000000000 0.6468940000000000 0.5407210000000000
0.7394900000000000 0.7765820000000000 0.6081820000000000
0.8142630000000000 0.6422550000000000 0.5876520000000000
0.9280950000000000 0.7175170000000000 0.7534400000000000
0.9608120000000000 0.5111690000000000 0.6563059999999999
0.7356360000000000 0.7207670000000000 0.8251540000000001
0.5305400000000000 0.9880110000000000 0.6780590000000000
0.5741280000000000 0.7037860000000000 0.9161510000000000
0.6650199999999999 0.9352330000000000 0.8920480000000000
0.6567370000000000 0.8201580000000001 0.8728810000000000
0.5291930000000000 0.9460130000000000 0.8866410000000000
0.9231840000000000 0.8629260000000000 0.5911210000000000
0.9867530000000000 0.9795070000000000 0.8644150000000000
0.7873559999999999 0.9907380000000000 0.9484939999999999
0.9801290000000000 0.7195190000000000 0.9857330000000000
0.7628390000000000 0.9041520000000000 0.7831290000000000
0.7734130000000000 0.9095310000000000 0.5436490000000000
0.9119780000000000 0.8977370000000000 0.9511269999999999
0.8065510000000000 0.7933540000000000 0.7591710000000000
0.0304202000000000 0.1416070000000000 0.1760660000000000
0.0716185000000000 0.3420360000000000 0.3033780000000000
0.4725350000000000 0.4106370000000000 0.3254260000000000
0.0846162000000000 0.2210740000000000 0.6592280000000000
0.4636350000000000 0.1091260000000000 0.6983160000000000
0.1275240000000000 0.5542230000000000 0.9418770000000000
0.4904220000000000 0.6914790000000000 0.5501400000000000
0.1088260000000000 0.8076320000000000 0.6713160000000000
0.1572280000000000 0.9474370000000000 0.8507670000000001
0.4560690000000000 0.8745320000000000 0.8257560000000000
0.7006840000000000 0.1837140000000000 0.0449421000000000
0.9743260000000000 0.1448560000000000 0.4292810000000000
0.7516830000000000 0.3640530000000000 0.2971670000000000
0.7969490000000000 0.0726364000000000 0.6913940000000000
0.5954330000000000 0.4389860000000000 0.5543270000000000
0.7265970000000000 0.4584950000000000 0.9356330000000000
0.8830340000000000 0.4015420000000000 0.6977989999999999
0.7862590000000000 0.5422750000000000 0.3043150000000000
0.8558610000000000 0.7809380000000000 0.0279605000000000
0.6137690000000000 0.9073600000000001 0.1320070000000000
0.8569390000000000 0.9675330000000000 0.1801780000000000
0.8335990000000000 0.6116910000000000 0.8036370000000000
0.8598380000000000 0.7739900000000000 0.5278680000000000
0.6368450000000000 0.8925560000000000 0.6388750000000000
0.9156690000000000 0.9018490000000000 0.7702580000000000
