Zr2 Cu2                                 
   1.00000000000000     
     4.1424346851193494    0.0000000000000000    0.0000000000000000
     0.0000000000000000    3.2404625166618457    0.0143361314215898
     0.0000000000000000    1.5329260834569116    5.2731021672348160
   Zr   Cu
     2     2
Direct
  0.7500000000000000  0.6505981538718887  0.1949220586826792
  0.2500000000000000  0.3494018461281114  0.8050779413173206
  0.7500000000000000  0.9306690249991099  0.6405243252521191
  0.2500000000000000  0.0693309750008903  0.3594756747478809
 
  0.00000000E+00  0.00000000E+00  0.00000000E+00
  0.00000000E+00  0.00000000E+00  0.00000000E+00
  0.00000000E+00  0.00000000E+00  0.00000000E+00
  0.00000000E+00  0.00000000E+00  0.00000000E+00
