bcc_Al0_Cu12_Nb0_Ni0_Ta12_W0_Zr0        
   1.00000000000000     
     8.8511732021302105   -0.0000000000000000    0.0000000000000000
    -0.0000000000000000    6.4600546713745093   -0.0000000000000000
     0.0000000000000000   -0.0000000000000000    6.4600546713745093
   Cu   Ta
    12    12
Direct
  0.1666666666666643  0.2500000000000000  0.2269197657807129
  0.5000000000000000  0.2500000000000000  0.2269197657807129
  0.8333333333333357  0.2500000000000000  0.2269197657807129
  0.1666666666666643  0.2500000000000000  0.7730802342192872
  0.5000000000000000  0.2500000000000000  0.7730802342192872
  0.8333333333333357  0.2500000000000000  0.7730802342192872
 -0.0000000000000000  0.4769197657807128  0.0000000000000000
  0.3333333333333357  0.4769197657807128  0.0000000000000000
  0.6666666666666643  0.4769197657807128  0.0000000000000000
  0.0000000000000000  0.0230802342192871  0.0000000000000000
  0.3333333333333357  0.0230802342192871  0.0000000000000000
  0.6666666666666643  0.0230802342192871  0.0000000000000000
 -0.0000000000000000  0.4831563864027063  0.5000000000000000
  0.3333333333333357  0.4831563864027063  0.5000000000000000
  0.6666666666666643  0.4831563864027063  0.5000000000000000
  0.1666666666666643  0.7500000000000000  0.7668436135972942
  0.5000000000000000  0.7500000000000000  0.7668436135972942
  0.8333333333333357  0.7500000000000000  0.7668436135972942
  0.1666666666666643  0.7500000000000000  0.2331563864027062
  0.5000000000000000  0.7500000000000000  0.2331563864027062
  0.8333333333333357  0.7500000000000000  0.2331563864027062
  0.0000000000000000  0.0168436135972938  0.5000000000000000
  0.3333333333333357  0.0168436135972938  0.5000000000000000
  0.6666666666666643  0.0168436135972939  0.5000000000000000
 
  0.00000000E+00  0.00000000E+00  0.00000000E+00
  0.00000000E+00  0.00000000E+00  0.00000000E+00
  0.00000000E+00  0.00000000E+00  0.00000000E+00
  0.00000000E+00  0.00000000E+00  0.00000000E+00
  0.00000000E+00  0.00000000E+00  0.00000000E+00
  0.00000000E+00  0.00000000E+00  0.00000000E+00
  0.00000000E+00  0.00000000E+00  0.00000000E+00
  0.00000000E+00  0.00000000E+00  0.00000000E+00
  0.00000000E+00  0.00000000E+00  0.00000000E+00
  0.00000000E+00  0.00000000E+00  0.00000000E+00
  0.00000000E+00  0.00000000E+00  0.00000000E+00
  0.00000000E+00  0.00000000E+00  0.00000000E+00
  0.00000000E+00  0.00000000E+00  0.00000000E+00
  0.00000000E+00  0.00000000E+00  0.00000000E+00
  0.00000000E+00  0.00000000E+00  0.00000000E+00
  0.00000000E+00  0.00000000E+00  0.00000000E+00
  0.00000000E+00  0.00000000E+00  0.00000000E+00
  0.00000000E+00  0.00000000E+00  0.00000000E+00
  0.00000000E+00  0.00000000E+00  0.00000000E+00
  0.00000000E+00  0.00000000E+00  0.00000000E+00
  0.00000000E+00  0.00000000E+00  0.00000000E+00
  0.00000000E+00  0.00000000E+00  0.00000000E+00
  0.00000000E+00  0.00000000E+00  0.00000000E+00
  0.00000000E+00  0.00000000E+00  0.00000000E+00
