Cu1 Ni1
1.0
   4.1338770800000004   -1.2389855900000000    0.0020941500000000
   4.1338770800000004    1.2389855900000000    0.0020941500000000
   3.7614632299999999   -0.0000000000000000    2.1155193400000001
Cu Ni
1 1
direct
  -0.0000000000000000   -0.0000000000000000   -0.0000000000000000 Cu
   0.5000000000000000    0.5000000000000000    0.5000000000000000 Ni
