Cu2 Zr2 
1.0
4.0285364443158738e+00 0.0000000000000000e+00 0.0000000000000000e+00 
-9.1095784795983984e-12 3.3520946159704517e+00 0.0000000000000000e+00 
4.1752812898137388e-12 1.6760473076234370e+00 5.3066863924032628e+00 
Cu Zr 
2 2 
Cartesian
   3.0214023332    4.1901199458    3.3988954875
   1.0071341111    0.8380229834    1.9077909049
   3.0214023332    2.5140692859    1.0145269978
   1.0071341111    2.5140726377    4.2921593946
