Cu32 Zr12 
1.0
7.8538601440475588e+00 0.0000000000000000e+00 0.0000000000000000e+00 
2.0312127845283383e-14 7.9847341782784058e+00 0.0000000000000000e+00 
3.7117655231512289e-14 -1.3859499343860145e-14 1.0265937555941603e+01 
Cu Zr 
32 12 
Cartesian
   7.0032635289    4.5948392371    3.4121615270
   3.0763334568    7.3822620303    1.7208072509
   7.0032635289    7.3822620303    3.4121615270
   3.0763334568    4.5948392371    1.7208072509
   5.5304212822    3.9522677541    1.0764143506
   1.6034912102    0.0401005328    4.0565544274
   5.5304212822    0.0401005328    1.0764143506
   1.6034912102    3.9522677541    4.0565544274
   6.3822195380    1.9961835446    2.3921790352
   2.4552894660    1.9961835446    2.7407897427
   3.1050864388    5.9885506337    4.0848781491
   7.0320165109    5.9885506337    1.0480906288
   1.1230313159    5.9885506337    2.6550588982
   5.0499613879    5.9885506337    2.4779098798
   1.4987128620    5.9885506337    0.1615981763
   5.4256429340    5.9885506337    4.9713726549
   0.8505966152    0.6024729464    6.8537760289
   4.7775266872    3.3898949412    8.5451303050
   0.8505966152    3.3898949412    6.8537760289
   4.7775266872    0.6024729464    8.5451303050
   2.3234388619    7.9446348432    9.1895232054
   6.2503689339    4.0324664242    6.2093831285
   2.3234388619    4.0324664242    9.1895232054
   6.2503689339    7.9446348432    6.2093831285
   1.4716406061    5.9885506337    7.8737585207
   5.3985706781    5.9885506337    7.5251478132
   4.7487737052    1.9961835446    6.1810594068
   0.8218436332    1.9961835446    9.2178469271
   6.7308288282    1.9961835446    7.6108786577
   2.8038987562    1.9961835446    7.7880276762
   6.3551472821    1.9961835446   10.1043414329
   2.4282172100    1.9961835446    5.2945649010
   4.5533303955    3.5525439764    3.7925555772
   0.6264018943    0.4398255082    1.3404132007
   4.5533303955    0.4398255082    3.7925555772
   0.6264018943    3.5525439764    1.3404132007
   7.4338671190    1.9961835446    4.8225781560
   3.5069370470    1.9961835446    0.3103895954
   3.3005297485    7.5449110655    6.4733819787
   7.2274598205    4.4321902019    8.9255243552
   3.3005297485    4.4321902019    6.4733819787
   7.2274598205    7.5449110655    8.9255243552
   0.4199953812    5.9885506337    5.4433594000
   4.3469230971    5.9885506337    9.9555469339
