Al8 Zr4 
1.0
5.3278984656134076e+00 0.0000000000000000e+00 0.0000000000000000e+00 
-2.6639482270094863e+00 4.6140954072437470e+00 0.0000000000000000e+00 
0.0000000000000000e+00 0.0000000000000000e+00 8.5893761709608434e+00 
Al Zr 
8 4 
Cartesian
   0.0000003462    1.5884208003    6.4420321282
   3.9522858700    0.7942104002    2.1473612215
   1.3756129419    0.7942104002    2.1473268640
   1.2883372967    3.8198850071    6.4420149495
  -2.6637478016    4.6140954072    0.0000007158
   5.3276960055    0.0000000000    4.2946880855
   2.6639498924    3.0256746069    2.1473440427
  -1.2883356313    3.8198850071    6.4420493070
   0.0000086624    3.0760651429    3.7346865273
   2.6639415762    1.5380302644    8.0293746127
   2.6639575599    1.5380302644    4.8546896437
  -0.0000073213    3.0760651429    0.5600024172
