bcc_Al0_Cu3_Nb3_Ni9_Ta0_W0_Zr9          
   1.00000000000000     
     9.8113078542639443    0.0000000000000000    0.0000000000000000
     0.0000000000000000    6.3749562692637767    0.2135956702202112
     0.0000000000000000    0.2135956702202113    6.3749562692637767
   Cu   Nb   Ni   Zr
     3     3     9     9
Direct
  0.1666666666666643  0.2810717641196493  0.2189282358803508
  0.5000000000000000  0.2810717641196493  0.2189282358803508
  0.8333333333333357  0.2810717641196493  0.2189282358803508
  0.1666666666666643  0.7544145393006310  0.7455854606993690
  0.5000000000000000  0.7544145393006310  0.7455854606993690
  0.8333333333333357  0.7544145393006310  0.7455854606993690
 -0.0000000000000000  0.5277251781902207 -0.0277251781902205
  0.3333333333333357  0.5277251781902207 -0.0277251781902205
  0.6666666666666643  0.5277251781902207 -0.0277251781902205
 -0.0000000000000000  0.5002324150952676  0.5459122706886164
  0.3333333333333357  0.5002324150952676  0.5459122706886164
  0.6666666666666643  0.5002324150952676  0.5459122706886164
 -0.0000000000000000 -0.0459122706886161 -0.0002324150952679
  0.3333333333333357 -0.0459122706886161 -0.0002324150952679
  0.6666666666666643 -0.0459122706886161 -0.0002324150952679
  0.1666666666666643  0.7009071456954431  0.2495804870413156
  0.5000000000000000  0.7009071456954431  0.2495804870413156
  0.8333333333333357  0.7009071456954431  0.2495804870413156
 -0.0000000000000000  0.0311417153287197  0.4688582846712802
  0.3333333333333357  0.0311417153287197  0.4688582846712802
  0.6666666666666643  0.0311417153287197  0.4688582846712802
  0.1666666666666643  0.2504195129586845  0.7990928543045569
  0.5000000000000000  0.2504195129586845  0.7990928543045569
  0.8333333333333357  0.2504195129586845  0.7990928543045569
 
  0.00000000E+00  0.00000000E+00  0.00000000E+00
  0.00000000E+00  0.00000000E+00  0.00000000E+00
  0.00000000E+00  0.00000000E+00  0.00000000E+00
  0.00000000E+00  0.00000000E+00  0.00000000E+00
  0.00000000E+00  0.00000000E+00  0.00000000E+00
  0.00000000E+00  0.00000000E+00  0.00000000E+00
  0.00000000E+00  0.00000000E+00  0.00000000E+00
  0.00000000E+00  0.00000000E+00  0.00000000E+00
  0.00000000E+00  0.00000000E+00  0.00000000E+00
  0.00000000E+00  0.00000000E+00  0.00000000E+00
  0.00000000E+00  0.00000000E+00  0.00000000E+00
  0.00000000E+00  0.00000000E+00  0.00000000E+00
  0.00000000E+00  0.00000000E+00  0.00000000E+00
  0.00000000E+00  0.00000000E+00  0.00000000E+00
  0.00000000E+00  0.00000000E+00  0.00000000E+00
  0.00000000E+00  0.00000000E+00  0.00000000E+00
  0.00000000E+00  0.00000000E+00  0.00000000E+00
  0.00000000E+00  0.00000000E+00  0.00000000E+00
  0.00000000E+00  0.00000000E+00  0.00000000E+00
  0.00000000E+00  0.00000000E+00  0.00000000E+00
  0.00000000E+00  0.00000000E+00  0.00000000E+00
  0.00000000E+00  0.00000000E+00  0.00000000E+00
  0.00000000E+00  0.00000000E+00  0.00000000E+00
  0.00000000E+00  0.00000000E+00  0.00000000E+00
