Zr4 Al2
1.0
   4.6764213999999997   -0.0000000100000000    2.6539719000000002
   2.3382106899999999    4.8414810099999999    1.3269844300000000
  -0.0514256600000000   -0.0000000100000000    5.5376358600000000
Zr Al
4 2
direct
   0.6514001700000001    0.1971976600000000    0.5000000000000000 Zr
   0.8485998300000001    0.5000000000000000    0.8028023400000001 Zr
   0.3485998300000000    0.8028023400000001    0.5000000000000000 Zr
   0.1514001700000000    0.5000000000000000    0.1971976600000000 Zr
   0.7500000000000000   -0.0000000000000000   -0.0000000000000000 Al
   0.2500000000000000   -0.0000000000000000   -0.0000000000000000 Al
