Converted from final.data
1.0
15.0815904867625719 0.0000000000000000 0.0000000000000000
0.1569723469999948 15.5431865940209306 0.0000000000000000
0.1273697276136162 -0.2830242158875199 32.8456651449688763
W Ni Zr Nb Ta
3 13 7 3 36
Direct
0.1618119964217038 0.1506072540463393 0.3042143832803018
0.3283979463144229 0.1882510792660537 0.1057390738783524
0.9100980673829074 0.0751176393559746 0.0388733894841401
-0.0029935860308767 0.4733824011472825 0.1480808253457202
0.4825117934078608 -0.0226001362168525 0.0005417449841484
0.9891716230281784 0.3520521664278061 -0.0092031927788432
0.4548643362448075 0.1767895114536487 0.2237324334859297
0.2165449965224492 0.3380228316667925 0.4873693113943846
0.0046575768314725 0.1384838585297975 0.3480643159384268
0.5484328505826983 0.0720334299333324 0.1997951796560062
0.4371211544313709 0.2547352518373709 0.4576650808300931
0.4328133941517416 0.2233991727906858 0.2930102272254491
-0.0026250091856141 0.1531632581972770 0.4254716133575983
0.3003043409395542 0.9883741755861040 0.3845789520598192
0.4276107803505285 0.4142117651239349 0.4569107144604035
0.9667661057340021 0.1879428544349704 0.1874888280805857
0.4886715244542225 0.1770166208278533 0.1337728965787207
0.3272735220019002 0.1240122433934716 0.3591572126515642
0.4689116246727015 -0.0114259619846294 0.3811545037940947
0.3008935036954301 0.3036381860437876 0.4217292562518145
0.2791586157711757 0.2854764920774150 0.3238524523598155
0.0672765464971641 0.3233741247460278 0.4520441320739246
0.3778285427120479 0.0905137287324948 0.4620057762793341
0.9482291377320188 0.4324030496535648 0.0739036675072066
0.3637214681768057 0.4865523068907009 0.1471769375895930
0.7895787433246284 0.4324154128988709 0.2308198498499543
0.3955541965988527 0.0658529606950243 0.0535171384417422
0.2770116596449245 0.2373098006006800 0.1837525940005356
0.2231500867198577 0.8965335007270632 0.2574221934940289
0.2355993282087431 -0.0174567308584544 0.3167263833795564
0.2702540243897746 0.4281494661318163 0.2013958113635433
-0.0341072095954699 0.3033576842767653 0.3770312544594735
0.0618296818857442 0.3006483227397629 0.2972706000412618
0.0510541957092652 -0.0039124189750878 0.4656865855541490
0.0037093794470705 0.0494889974502725 0.1853732022418502
0.4810235249202627 0.2285402510484875 0.0610986497222136
0.2538942548131379 0.4817413788040995 0.0714934073017629
0.1002777349038631 0.2082539494547062 0.2160560479808987
0.1445781555500605 0.0251708122005823 0.2447060258902969
0.0484411650651519 0.0745238603585533 0.0453820349920697
0.0804194911662173 0.3633679787753762 0.0944295855705237
0.3089544540918394 0.1481081366623165 0.2561372895065665
0.2541525267351954 0.3361719275749390 0.1207514725052993
0.0996012152707875 0.4004378413133128 0.0144639985291389
0.0302463932527702 0.2041651451133335 -0.0115422257437119
0.1092715730104666 0.1933461259923181 0.1296960300911720
0.2923095526404187 0.4166376919398024 -0.0050235490913656
0.3366183117036526 0.2163510456056154 0.0039605116707808
0.3775306587082649 0.0982886967853016 0.1740927661186085
0.2122285450024226 0.0816124849317613 -0.0016553275714246
0.2101544386695521 0.0719479434288769 0.1703696505069846
0.1814192946455787 0.2442479786518362 0.0517814758737631
0.0614039068919509 0.4052183980137504 0.2269047829603859
0.3727391593351202 0.3419438060315916 0.2444186155919962
0.2252680549879361 -0.0274804477339888 0.4609280017211503
0.0482944541094817 -0.0309222791700992 0.3170537220905191
0.4486504599177346 0.3914825540948790 0.3168100598558205
-0.0113179088852075 0.1379308376066898 0.2741651505364353
0.1352029135055962 0.4066517042822241 0.3740458469599188
0.1751743339432969 0.1598382387648815 0.4611974016189141
0.1379221729916405 0.2275586632362778 0.3762920910461336
0.1520167533934403 0.0580758849469801 0.3883694238572779
