Al10 W2 
1.0
4.8880743237050712e+00 0.0000000000000000e+00 0.0000000000000000e+00 
-2.4440278926771568e+00 4.2332073409485718e+00 0.0000000000000000e+00 
-3.4763165508555447e-07 -9.5999856799934255e-06 8.9971373663419847e+00 
Al W 
10 2 
Cartesian
  -2.4439257090    4.2332073409    0.0000053746
   0.8144050653    1.4107816777    2.2492393559
   3.2589343825    0.0000033834    2.2493743130
   3.2584502062    2.8224208633    2.2492393559
   4.8869739171   -0.0000040793    4.4985596860
  -0.0001310343    2.8220919395    8.9971373663
   2.4442111604    1.4111010015    4.4985686832
  -0.8143901644    1.4107684113    6.7478080391
  -0.8148745300    4.2331959077    6.7479429961
   1.6296532383    2.8224202965    6.7478080391
   2.4438908177    1.4110835018    8.9971373663
   0.0002039725    2.8220840399    4.4985686832
