Al3 Ni6 Zr9 Ta3 W3 
1.0
8.9175929725141447e+00 0.0000000000000000e+00 0.0000000000000000e+00 
-6.1344887254260204e-08 7.4806052119903921e+00 0.0000000000000000e+00 
1.4687685151861443e-08 -1.8111648906964787e-08 6.1854073273700640e+00 
Al Ni Zr Ta W 
3 6 9 3 3 
Cartesian
   2.9725279974    3.4491798839    3.0927036637
   8.9175929516    3.4491798839    3.0927036637
   5.9450649333    3.4491798839    3.0927036637
   1.4862684556    1.9970148818    1.6938614258
   1.4862684622    1.9970148736    4.4915459016
   4.4587964739    1.9970148818    1.6938614258
   4.4587964805    1.9970223542    4.4915459016
   7.4313244922    1.9970223624    1.6938614258
   7.4313244989    1.9970223542    4.4915459016
   1.4862684340    5.4986038861    4.6986642659
   1.4862684264    5.4986038955    1.4867430614
   2.9725280235    0.2670186979    3.0927036637
   0.0000005316    0.2670186979    3.0927036637
   4.4587964523    5.4986038861    4.6986642659
   4.4587964447    5.4986038955    1.4867430614
   7.4313244706    5.4986038861    4.6986642659
   7.4313244630    5.4986038955    1.4867430614
   5.9450649594    0.2670186979    3.0927036637
   2.9725279914    3.2853471582    0.0000000720
   8.9175929603    3.2853471401    6.1854073274
   5.9450649420    3.2853471401    6.1854073274
   2.9725280146    0.4490367929    0.0000000152
   0.0000000200    0.4490367929    0.0000000308
   5.9450649652    0.4490375229    6.1854073274
