bcc_Al0_Cu0_Nb0_Ni12_Ta12_W0_Zr0        
   1.00000000000000     
    10.1962675220722474    0.0000000000000000    0.0000000000000000
     0.0000000000000000    5.8511489778161163    0.0053437029856233
     0.0000000000000000    0.0053437029856233    5.8511489778161163
   Ni   Ta
    12    12
Direct
  0.0000000000000000 -0.0083557641876657  0.5083557641876657
  0.3333333333333357 -0.0083557641876657  0.5083557641876657
  0.6666666666666643 -0.0083557641876657  0.5083557641876657
  0.1666666666666643  0.2340258267152035  0.7421893475528690
  0.5000000000000000  0.2340258267152035  0.7421893475528690
  0.8333333333333357  0.2340258267152035  0.7421893475528690
  0.1666666666666643  0.7578106524471310  0.2659741732847964
  0.5000000000000000  0.7578106524471310  0.2659741732847964
  0.8333333333333357  0.7578106524471310  0.2659741732847964
  0.1666666666666643  0.7735492312931902  0.7264507687068098
  0.5000000000000000  0.7735492312931902  0.7264507687068098
  0.8333333333333357  0.7735492312931902  0.7264507687068098
  0.0000000000000000  0.5263505194175496  0.5110914841172609
  0.3333333333333357  0.5263505194175496  0.5110914841172609
  0.6666666666666643  0.5263505194175496  0.5110914841172609
  0.0000000000000000  0.5014537281608412 -0.0014537281608415
  0.3333333333333357  0.5014537281608412 -0.0014537281608415
  0.6666666666666643  0.5014537281608412 -0.0014537281608415
  0.1666666666666643  0.2262572902710104  0.2737427097289894
  0.5000000000000000  0.2262572902710104  0.2737427097289894
  0.8333333333333357  0.2262572902710104  0.2737427097289894
  0.0000000000000000 -0.0110914841172607 -0.0263505194175495
  0.3333333333333357 -0.0110914841172607 -0.0263505194175495
  0.6666666666666643 -0.0110914841172607 -0.0263505194175495
 
  0.00000000E+00  0.00000000E+00  0.00000000E+00
  0.00000000E+00  0.00000000E+00  0.00000000E+00
  0.00000000E+00  0.00000000E+00  0.00000000E+00
  0.00000000E+00  0.00000000E+00  0.00000000E+00
  0.00000000E+00  0.00000000E+00  0.00000000E+00
  0.00000000E+00  0.00000000E+00  0.00000000E+00
  0.00000000E+00  0.00000000E+00  0.00000000E+00
  0.00000000E+00  0.00000000E+00  0.00000000E+00
  0.00000000E+00  0.00000000E+00  0.00000000E+00
  0.00000000E+00  0.00000000E+00  0.00000000E+00
  0.00000000E+00  0.00000000E+00  0.00000000E+00
  0.00000000E+00  0.00000000E+00  0.00000000E+00
  0.00000000E+00  0.00000000E+00  0.00000000E+00
  0.00000000E+00  0.00000000E+00  0.00000000E+00
  0.00000000E+00  0.00000000E+00  0.00000000E+00
  0.00000000E+00  0.00000000E+00  0.00000000E+00
  0.00000000E+00  0.00000000E+00  0.00000000E+00
  0.00000000E+00  0.00000000E+00  0.00000000E+00
  0.00000000E+00  0.00000000E+00  0.00000000E+00
  0.00000000E+00  0.00000000E+00  0.00000000E+00
  0.00000000E+00  0.00000000E+00  0.00000000E+00
  0.00000000E+00  0.00000000E+00  0.00000000E+00
  0.00000000E+00  0.00000000E+00  0.00000000E+00
  0.00000000E+00  0.00000000E+00  0.00000000E+00
