Converted from final.data
1.0
15.0563652469629936 0.0000000000000000 0.0000000000000000
0.1741476135565757 30.8350428827075049 0.0000000000000000
0.0806579536569509 -0.4666937549000286 15.4387758319692505
Cu W Ni Zr Nb
8 23 10 16 2
Direct
0.5320362433526995 0.8627533779699633 0.1426807570585709
0.2780783544341635 0.8370742532085799 0.0533143492191957
0.1420853014402651 0.8225337066589034 0.3822630435873269
0.2281854591320327 0.8320549254023826 0.2040108865974461
0.8707090973870414 0.9709660510741980 0.2778537610414310
0.0308879695779332 0.9946673476412506 0.0554239416123890
0.5175102786619813 0.0840496848168812 -0.0165469463316857
0.1305182469448497 0.9987585056658659 0.4180507024471121
0.3488444323792568 0.7616250487469629 0.1592997407532019
0.2763911746265910 0.7497776971497964 0.0011429261113505
0.2728949560825805 0.9034763344614372 -0.0251003210444748
0.3251870119203998 0.6506129996309538 0.3184083437946937
0.0766363340170328 0.0281631797985327 0.1127001872038735
0.0586937881645970 0.1851044652234564 0.1000011349061639
0.2186114463378532 0.1692716066708689 0.0204176660663482
0.3324893896884291 0.1079537998159554 0.0742935609098061
0.3371953651631789 0.9005481538604700 0.1501672897931037
-0.0203522662954186 0.1192582892053182 0.1437385230388533
0.1251849486920243 -0.0360860915949579 0.2047460189673324
0.2912278592440918 0.6749523931066636 0.1132384032900052
0.8569201711854447 0.7137528756833880 0.9655174997238903
0.1246211608219497 0.7288057867272407 0.0835614697864177
0.5187944980509781 0.0412980673602799 0.8677014859589363
0.1947308166447561 -0.0396936970022095 0.0625541637172420
0.5052197724389993 0.1448308502715696 0.3062694798045565
0.0012797438192274 -0.0032478962643647 0.3549262473336395
0.0248591725349521 0.1398434782183045 0.2866240564226362
0.1530916946444675 0.1137968338522714 0.2001197798087417
0.3756161773791638 0.9773595225095779 0.1061605613506842
0.1502277273334476 0.9517110598917100 0.9512572800372807
-0.0091720190087069 0.6934352418808991 0.2760051862723811
0.1642322574738800 0.1253526915816347 0.3559821491955599
0.3084612057212511 0.8830361938075518 0.3219956822000985
-0.0377162474000910 0.9494264883370078 0.3817081594623350
0.0383509146269009 0.2709282997157476 0.3427055852431301
0.2509893940062147 0.9635151251977543 0.2053922416834631
0.2296353445011318 0.0349578550660590 0.0161807581542588
0.3534771212478229 0.0317194595733327 0.3002000764098596
0.6541106190075933 -0.0419955784828467 0.1774173270330574
-0.0130723244446331 0.8140369709978520 0.5317193839321489
-0.0023990236419327 0.8632078112043555 0.0610578222750729
0.7565145487773470 0.0309418845334918 0.0379592555512483
0.8301755997350421 0.7751519078868430 0.2519694647197311
-0.0292351270023575 -0.0407810414094772 0.5080653119349710
0.1866924071947205 0.7492823441876543 0.2785301546934927
0.4819888987667532 -0.0227930762090894 0.2184042422582849
-0.0424789187528586 0.9233477916085365 -0.0424907451527259
0.4539739155957679 0.7416661569194105 0.9311187038077738
-0.0431161676839220 0.7846413459489302 0.3558074246540692
0.4143958135462175 0.6738539964387803 0.6180918582100674
-0.0276177960255892 0.8034845694188296 0.9699202903134856
0.1543906059836041 0.9155814655651329 0.0905894756546729
0.5402771427968500 0.6493222840862101 0.9835906030307292
0.3324883377575601 0.8201900551214923 0.4227181667827768
0.2703757581546414 0.7142524479894290 0.8812475871983774
0.2680392824583616 0.0530661700023634 0.4436460280609745
0.8288321739402142 0.8623880291948286 -0.0389567158866938
0.8508303187050617 0.9305332967279318 0.4171884518075028
0.1123495562542185 0.8120671524241384 0.0576809027129193
