Al6 W3
1.0
   2.4364340000000002   -4.2200280000000001    0.0000000000000000
   2.4364340000000002    4.2200280000000001    0.0000000000000000
   0.0000000000000000    0.0000000000000000    6.7867910000000000
Al W
6 3
direct
   0.1685450000000000    0.8314549999999991    0.1666669999999990 Al
   0.3370889999999990    0.1685450000000000    0.8333330000000000 Al
   0.8314549999999991    0.6629109999999990    0.5000000000000000 Al
   0.8314549999999991    0.1685450000000000    0.1666669999999990 Al
   0.6629109999999990    0.8314549999999991    0.8333330000000000 Al
   0.1685450000000000    0.3370889999999990    0.5000000000000000 Al
   0.5000000000000000    0.0000000000000000    0.5000000000000000 W
   0.0000000000000000    0.5000000000000000    0.8333330000000000 W
   0.5000000000000000    0.5000000000000000    0.1666669999999990 W
