Al4 Ni4 Ta4 
1.0
4.9255840963330018e+00 0.0000000000000000e+00 0.0000000000000000e+00 
-2.5664274497757642e+00 4.3239704887649451e+00 0.0000000000000000e+00 
3.4218742704335756e-07 6.3687586065369555e-07 7.9842235026497530e+00 
Al Ni Ta 
4 4 4 
Cartesian
   2.3141251123    4.2972356893    3.8875902815
   2.3141249502    4.2972353876    0.1045206715
   0.0137722523    1.5123437479    5.9881676270
  -1.2322431794    3.6117395194    5.9881676270
   1.1729296302    3.6198469641    5.9881676270
   2.3851783790    2.8100923683    1.9960558757
   3.6091210838    0.7479432785    1.9960558757
   1.2434005703    0.7380543580    1.9960558757
   2.4395675212    1.4480461805    4.4063013297
  -0.0927241086    2.8686131014    3.4570090922
  -0.0927242338    2.8686128683    0.5351018607
   2.4395676568    1.4480464329    7.5700339242
