Zr10 Al2 Ni8
1.0
   7.2050299999999998    0.0000000000000000    0.0000000000000000
   0.0000000000000000    7.2050299999999998    0.0000000000000000
   0.0000000000000000    0.0000000000000000    6.6462170000000000
Zr Al Ni
10 2 8
direct
   0.3516229999999990    0.1843800000000000    0.0000000000000000 Zr
   0.8156200000000000    0.3516229999999990    0.5000000000000000 Zr
   0.1843800000000000    0.6483770000000000    0.5000000000000000 Zr
   0.0000000000000000    0.0000000000000000    0.7500000000000000 Zr
   0.1899580000000000    0.6541969999999990    0.0000000000000000 Zr
   0.6483770000000000    0.8156200000000000    0.0000000000000000 Zr
   0.3458029999999990    0.1899580000000000    0.5000000000000000 Zr
   0.6541969999999990    0.8100419999999990    0.5000000000000000 Zr
   0.8100419999999990    0.3458029999999990    0.0000000000000000 Zr
   0.0000000000000000    0.0000000000000000    0.2500000000000000 Zr
   0.5000000000000000    0.5000000000000000    0.2500000000000000 Al
   0.5000000000000000    0.5000000000000000    0.7500000000000000 Al
   0.6320950000000000    0.1209900000000000    0.7424000000000001 Ni
   0.1209900000000000    0.3679050000000000    0.7576000000000001 Ni
   0.8790100000000001    0.6320950000000000    0.7576000000000001 Ni
   0.8790100000000001    0.6320950000000000    0.2424000000000000 Ni
   0.3679050000000000    0.8790100000000001    0.7424000000000001 Ni
   0.3679050000000000    0.8790100000000001    0.2576000000000000 Ni
   0.6320950000000000    0.1209900000000000    0.2576000000000000 Ni
   0.1209900000000000    0.3679050000000000    0.2424000000000000 Ni
