Al1 Cu2 Zr2 
1.0
7.5622868259484468e+00 0.0000000000000000e+00 0.0000000000000000e+00 
6.4090349560089113e+00 4.0140572171304267e+00 0.0000000000000000e+00 
1.2731308558716192e+00 3.6577638038101207e-01 2.8058763517345349e+00 
Al Cu Zr 
1 2 2 
Cartesian
   7.5616604283    0.0001049042    0.0000006004
   3.5356130980    1.0157695379    1.6946960048
  11.7089824606    3.3640355954    1.1111775411
   8.9875039260    2.5821451041    0.7324656040
   6.2570882927    1.7976764512    2.0734107477
