Ni20 Zr14 
1.0
7.7181323374623947e+00 0.0000000000000000e+00 0.0000000000000000e+00 
-2.2783136869976990e+00 7.3739696098354095e+00 0.0000000000000000e+00 
7.7722426942091481e-09 1.1815674344504883e-07 9.1697411545887260e+00 
Ni Zr 
20 14 
Cartesian
  -0.3215239834    2.5966107250    4.5256523889
  -0.8783634763    6.2363209870    2.6862940107
   2.3983914754    6.2835880984    0.0592209393
   2.1228416681    2.8775958249    3.5892384222
   2.5759099979    0.4592943920    4.5256523889
   1.2196874532    4.6886574872    1.8985765666
   4.8427487129    6.5645879703    0.9956321551
   4.1198518171    2.5493361719    1.8985765666
   6.2179104661    1.0016726924    2.6863031805
   5.2958036552    4.1462798768    0.0592244238
   1.3199845557    4.8246261821    7.2711645880
  -0.7780609353    6.3722970355    6.4834471439
   0.1440381574    3.2276898512    9.1105229662
   0.5970930998    0.8093817576    8.1741089995
   4.2201543595    2.6853122408    7.2711645880
   3.3170047011    4.4963591552    5.5805119021
   3.0414503372    1.0903816296    9.1105137965
   5.7613596587    4.7773663770    4.6440979354
   2.8639629151    6.9146745986    4.6440887657
   6.3182207252    1.1376487410    6.4834379741
   1.5573603803    7.3422394481    2.2924352886
   1.0113570438    1.3709389561    1.7191797506
   3.7312663700    5.0579237758    2.8656908267
   6.5555811142    3.6552620172    2.2924352886
   7.7181268811    0.0000177318    4.5848705773
  -0.3821746394    5.9752825464    9.1697411546
   1.7085754426    2.3160459522    6.3040594977
  -1.1157399962    3.7187077108    6.8773058659
   0.8238011618    5.0856720456    4.5848705773
   2.7199170511    3.6869849231    9.1697319848
   5.8220141737    1.3986945556    0.0000001661
   4.6160506473    2.2882903084    4.5848705773
   4.4284824905    6.0030381458    7.4505522342
   3.8824845536    0.0317201775    6.8773058659
