bcc_Al0_Cu0_Nb9_Ni0_Ta3_W3_Zr9          
   1.00000000000000     
     9.9832279878065435    0.0000000000000000    0.0000000000000000
     0.0000000000000000    6.6663950150790505    0.0000000000000000
     0.0000000000000000    0.0000000000000000    7.0438735064063227
   Nb   Ta   W    Zr
     9     3     3     9
Direct
  0.1666666666666643  0.2500000000000000  0.2757873291832222
  0.5000000000000000  0.2500000000000000  0.2757873291832222
  0.8333333333333357  0.2500000000000000  0.2757873291832222
  0.0000000000000000  0.0001085212127562  0.4836106138509599
  0.3333333333333357  0.0001085212127562  0.4836106138509599
  0.6666666666666643  0.0001085212127562  0.4836106138509599
  0.0000000000000000  0.4998914787872437  0.4836106138509599
  0.3333333333333357  0.4998914787872437  0.4836106138509599
  0.6666666666666643  0.4998914787872437  0.4836106138509599
  0.1666666666666643  0.2500000000000000  0.7285761606128459
  0.5000000000000000  0.2500000000000000  0.7285761606128459
  0.8333333333333357  0.2500000000000000  0.7285761606128459
  0.1666666666666643  0.7500000000000000  0.2699979619291991
  0.5000000000000000  0.7500000000000000  0.2699979619291991
  0.8333333333333357  0.7500000000000000  0.2699979619291991
  0.1666666666666643  0.7500000000000000  0.7309003675255783
  0.5000000000000000  0.7500000000000000  0.7309003675255783
  0.8333333333333357  0.7500000000000000  0.7309003675255783
  0.0000000000000000  0.0013632206951111  0.0137584765236174
  0.3333333333333357  0.0013632206951111  0.0137584765236174
  0.6666666666666643  0.0013632206951111  0.0137584765236174
  0.0000000000000000  0.4986367793048890  0.0137584765236174
  0.3333333333333357  0.4986367793048890  0.0137584765236174
  0.6666666666666643  0.4986367793048890  0.0137584765236174
 
  0.00000000E+00  0.00000000E+00  0.00000000E+00
  0.00000000E+00  0.00000000E+00  0.00000000E+00
  0.00000000E+00  0.00000000E+00  0.00000000E+00
  0.00000000E+00  0.00000000E+00  0.00000000E+00
  0.00000000E+00  0.00000000E+00  0.00000000E+00
  0.00000000E+00  0.00000000E+00  0.00000000E+00
  0.00000000E+00  0.00000000E+00  0.00000000E+00
  0.00000000E+00  0.00000000E+00  0.00000000E+00
  0.00000000E+00  0.00000000E+00  0.00000000E+00
  0.00000000E+00  0.00000000E+00  0.00000000E+00
  0.00000000E+00  0.00000000E+00  0.00000000E+00
  0.00000000E+00  0.00000000E+00  0.00000000E+00
  0.00000000E+00  0.00000000E+00  0.00000000E+00
  0.00000000E+00  0.00000000E+00  0.00000000E+00
  0.00000000E+00  0.00000000E+00  0.00000000E+00
  0.00000000E+00  0.00000000E+00  0.00000000E+00
  0.00000000E+00  0.00000000E+00  0.00000000E+00
  0.00000000E+00  0.00000000E+00  0.00000000E+00
  0.00000000E+00  0.00000000E+00  0.00000000E+00
  0.00000000E+00  0.00000000E+00  0.00000000E+00
  0.00000000E+00  0.00000000E+00  0.00000000E+00
  0.00000000E+00  0.00000000E+00  0.00000000E+00
  0.00000000E+00  0.00000000E+00  0.00000000E+00
  0.00000000E+00  0.00000000E+00  0.00000000E+00
