Zr3 Ta1 
1.0
4.4492557745874688e+00 0.0000000000000000e+00 0.0000000000000000e+00 
0.0000000000000000e+00 4.4492557745874688e+00 0.0000000000000000e+00 
0.0000000000000000e+00 0.0000000000000000e+00 4.4492557745874688e+00 
Zr Ta 
3 1 
Cartesian
   4.4492557746    2.2246278873    2.2246278873
   2.2246278873    0.0000000021    2.2246278873
   2.2246278873    2.2246278873    0.0000000020
   0.0000000005    0.0000000010    4.4492557746
