Al2 Cu6                                 
   1.00000000000000     
     2.6155493542150308   -4.5302641860335013    0.0000000000000000
     2.6155493542150308    4.5302641860335013    0.0000000000000000
     0.0000000000000000    0.0000000000000000    4.2392309438436930
   Al   Cu
     2     6
Direct
  0.3333330000000032  0.6666669999999968  0.7500000000000000
  0.6666669999999968  0.3333330000000032  0.2500000000000000
  0.1657826389145732  0.3315662678289444  0.2500000000000000
  0.6684337321710556  0.8342173610854269  0.2500000000000000
  0.1657826389143745  0.8342173610856256  0.2500000000000000
  0.8342173610854269  0.6684337321710556  0.7500000000000000
  0.3315662678289444  0.1657826389145732  0.7500000000000000
  0.8342173610856256  0.1657826389143745  0.7500000000000000
 
  0.00000000E+00  0.00000000E+00  0.00000000E+00
  0.00000000E+00  0.00000000E+00  0.00000000E+00
  0.00000000E+00  0.00000000E+00  0.00000000E+00
  0.00000000E+00  0.00000000E+00  0.00000000E+00
  0.00000000E+00  0.00000000E+00  0.00000000E+00
  0.00000000E+00  0.00000000E+00  0.00000000E+00
  0.00000000E+00  0.00000000E+00  0.00000000E+00
  0.00000000E+00  0.00000000E+00  0.00000000E+00
