Al1                                     
   1.00000000000000     
     1.6162059070721646    1.6162059070721646    1.6162059070721646
     1.6162059070721646   -1.6162059070721646   -1.6162059070721646
    -1.6162059070721646    1.6162059070721646   -1.6162059070721646
   Al
     1
Direct
 -0.0000000000000000 -0.0000000000000000  0.0000000000000000
 
  0.00000000E+00  0.00000000E+00  0.00000000E+00
