Converted from final.data
1.0
15.1971765416612108 0.0000000000000000 0.0000000000000000
0.0895149764982480 34.7802796553293234 0.0000000000000000
-0.1499212951514008 -0.1689028345208188 14.9646689625284850
Al Zr W Ta Ni Cu
3 23 23 6 3 3
Direct
0.1340360116672014 0.1308324123621074 0.2700040894742335
0.1526977949165137 0.1589744839390440 0.4267041281277191
0.0553359466087849 0.4143370877608610 0.5143746674645231
0.5813340424636049 0.2068086102170544 0.2074461063713550
0.1891868421317933 0.4748911997443384 0.4472342024882340
0.0894988728390537 0.5087382023754007 0.2840269051531428
0.1783581465560868 0.2833071372041053 0.2592679524593305
0.0891315236559040 0.4403163321939799 0.1229750366120191
0.2871496599717433 0.2281225253656537 0.1064733634647879
0.2546693211499921 0.2009607238872712 0.3069402762984225
0.3403473705976531 0.3957840036155926 0.1096718475817151
0.1329906975580559 0.3448124855661759 0.5830859691013019
0.3880421703752245 0.4206674907703560 0.3771940295178082
0.4879889690301006 0.3026540106306806 0.3680544997061053
0.1911100307411512 0.3723491279245040 0.3941115830483536
0.6215012968574156 0.1353042943075803 0.3392624337058437
0.4460683121156036 0.0828163167653931 0.4657601062536883
0.5616713137239213 -0.0429558196963536 0.3830417051805811
0.4091780912807236 -0.0246564223288457 0.2279256199025650
0.8212147742349253 0.4402485570146850 0.7452376527767278
0.9316736461874270 0.4022349287627154 0.3956587593294034
0.2281207137555620 0.4355875743383973 0.2635620698520572
-0.0254779149408689 0.1468289976669308 0.1778760744215701
0.0314565796058539 0.2153152193130634 0.2956722630568306
0.5021545535744720 0.5131331174694868 0.3399243198319989
0.7498327206132757 0.2677340978496465 0.1678190588778014
0.4251811210877227 0.1736437536791547 0.2037711706758961
0.3900757468687028 0.2936015710042707 0.1749019038470621
0.4679701195046851 0.3708108334698527 0.2288722813542116
0.4092559995849379 0.2364720165716503 0.2795638267596774
0.1867030952349150 0.5097827420798873 0.1180392357642641
0.0209021360744240 0.1886835933833836 0.5245212824466456
0.3260290507619932 0.0378253176718560 0.3208745569578864
0.0957524405971429 -0.0563247048666343 0.1518936224412370
0.1589659221602721 0.1434611393295704 0.6040387888271860
0.4458751021302199 0.0099023597326662 0.4513870446121656
0.4563133156136356 0.1746954002525816 0.0390743058598862
0.1689946094678397 0.0692195868656544 0.1875256187941405
0.1259515142827085 0.0435440593687400 0.3483065748692427
0.4128130381956902 0.0816949489283050 0.0329654636816441
0.2262652696294642 -0.0121753288082150 0.4324605254289546
0.2892946874378483 0.1123301004785402 0.3615681752019047
0.4778032775317669 0.2478987785840181 0.0813412136831575
0.3716901207797291 0.2928002705450329 -0.0098941132850859
0.0411353289032175 0.4191704872054905 0.3175983314073793
-0.0127322555846849 0.0872580641630876 0.2938560970312402
0.3212450507586516 0.0364763587749603 0.1452769466422668
0.8630988980310474 0.1379049255023190 0.3140226644875219
0.7638158066620661 0.1616264386295743 0.4418935957818456
0.1372171869708498 0.3886718704648174 0.8316437186039078
0.4419985853014093 0.5651648050185358 0.1781075875676017
0.6025565811659102 0.4525138846934914 0.2515043486177446
0.7669512114732197 0.5087572072286131 0.2455883262281190
0.3442351092468470 0.3481628290267282 0.3083549622717321
-0.0394865155486960 0.1156166159215258 -0.0583187377609252
0.0724584976830850 0.2525885635173745 0.4515752067201590
-0.0294937514998452 0.1449655024190555 0.3869744065373806
0.8971974742901911 0.3125598283641814 0.4472289686120642
0.1593862413729916 0.1784176224671273 0.1409612061611529
0.1731211637268111 0.2524428557195438 -0.0275225419250051
0.2797074790703361 0.0835600126292709 0.4845206016551067
