POSCAR file written by OVITO Basic 3.9.4
1
7.1890565022 0.0 0.0
0.079567046 14.723 0.0
0.0368521565 -0.2132297004 7.3716484663
Cu W Ni Zr Nb 
8 23 10 16 2 
Cartesian
3.6854046941 -5.8256826235 3.6111494759
4.9769114287 -7.3404226235 3.1041010915
5.4142248405 -4.0842126235 -0.2485738011
5.2371120925 -3.9589826235 3.2249860064
5.3053645953 -5.6360326235 1.4552787275
7.0176209309 -3.7661926235 5.4976323806
3.5189119895 -7.5415726235 4.6596166586
3.7356626569 -3.7941526235 4.8127874209
-0.0398316 3.4357 3.56606
3.55045 -0.205712 7.12487
3.53762 -0.0962716 3.56842
3.48082 3.42832 3.56269
1.74872 1.65195 3.56458
1.67095 5.30217 0.0041118
1.68821 5.19654 3.55857
5.18955 5.30601 0.00335765
5.19822 5.21029 3.55619
1.79824 -0.150737 5.33294
1.70406 3.49357 1.78732
1.72653 3.38586 5.33552
5.30493 -0.152655 5.34556
-0.0763549 5.24953 1.7871
3.49918 1.71741 1.77645
3.51033 1.61572 5.33963
3.43933 5.25528 1.77796
1.5178500089 -7.4195726235 3.1950739718
2.0848506778 -3.8378043211 6.8028296321
1.9876476944 -2.1512526235 5.2132137145
1.7603538013 -5.5333826235 1.7554263961
5.3998887423 -5.5743126235 4.8265615188
3.5656843503 -4.1643226235 1.7714546188
6.96944 3.53684 0.00257993
5.24445 1.76272 4.83298e-04
5.25602 1.66193 3.55429
1.76554 -0.0478007 1.78745
5.22269 3.4994 1.7805
5.24208 3.37885 5.35168
-0.0126991 1.7303 1.77641
7.02626 1.62094 5.34612
-0.0568982 5.13592 5.34685
3.4497 5.15173 5.35094
7.087957113 -2.2523726235 -0.1990470919
7.1122507022 -2.2286226235 3.410492486
0.0911917963 -5.8321626235 6.7592539789
6.8713312743 -5.7695426235 3.3628267262
4.0623202104 -2.2940426235 -0.1570677106
3.3829062989 -5.5060126235 6.6580677196
2.1896589707 -7.6114726235 6.6084670033
1.4019417421 -3.4646426235 3.3450929491
4.9169456324 -7.1953026235 6.8509050913
1.936074229 -2.1739926235 1.5165091312
1.8232194647 -5.6062126235 4.7463406137
5.3701795071 -2.2171126235 1.7350295603
6.9982916838 -7.5240126235 1.3639767051
6.8496498063 -7.6737126235 5.3132130674
7.0409542991 -3.7787426235 1.4828867675
3.2305000351 -7.4131126235 1.4261047691
3.50431 3.32918 7.11383
1.75949 1.56233 7.12625
