Ni1                                     
   1.00000000000000     
     2.1495970751221636   -0.0000000035535929    1.2410703889010108
     0.7165320183205467    2.0266602429859333    1.2410703889010108
     0.0000000000583669    0.0000000000412716    2.4821407675998333
   Ni
     1
Direct
  0.0000000000000000 -0.0000000000000000  0.0000000000000000
 
  0.00000000E+00  0.00000000E+00  0.00000000E+00
