Al6 Nb1 Ta1 
1.0
3.8532378233805620e+00 0.0000000000000000e+00 0.0000000000000000e+00 
1.3536100689210333e-16 3.8532378233805624e+00 0.0000000000000000e+00 
-2.6104898446550593e-17 5.6956142065201289e-17 8.6188612159042322e+00 
Al Nb Ta 
6 1 1 
Cartesian
   1.9266189117    1.9266189117    8.6188612159
   3.8532378234    3.8532378234    4.3094306080
   3.8532378234    1.9266189117    2.1629807919
   1.9266189117    3.8532378234    6.4558804240
   1.9266189117    3.8532378234    2.1629807919
   3.8532378234    1.9266189117    6.4558804240
   3.8532378234    3.8532378234    8.6188612159
   1.9266189117    1.9266189117    4.3094306080
