Zr6 Al16 Ni7
1.0
   0.0000000000000000    6.0519379999999998    6.0519379999999998
   6.0519379999999998    0.0000000000000000    6.0519379999999998
   6.0519379999999998    6.0519379999999998    0.0000000000000000
Zr Al Ni
6 16 7
direct
   0.6913570000000000    0.6913570000000000    0.3086430000000000 Zr
   0.3086430000000000    0.6913570000000000    0.3086430000000000 Zr
   0.6913570000000000    0.3086430000000000    0.3086430000000000 Zr
   0.3086430000000000    0.3086430000000000    0.6913570000000000 Zr
   0.6913570000000000    0.3086430000000000    0.6913570000000000 Zr
   0.3086430000000000    0.6913570000000000    0.6913570000000000 Zr
   0.8808260000000000    0.8808260000000000    0.3575230000000000 Al
   0.8808260000000000    0.3575230000000000    0.8808260000000000 Al
   0.3575230000000000    0.8808260000000000    0.8808260000000000 Al
   0.8808260000000000    0.8808260000000000    0.8808260000000000 Al
   0.1191739999999990    0.1191739999999990    0.6424770000000000 Al
   0.1191739999999990    0.6424770000000000    0.1191739999999990 Al
   0.6424770000000000    0.1191739999999990    0.1191739999999990 Al
   0.1191739999999990    0.1191739999999990    0.1191739999999990 Al
   0.6664169999999990    0.6664169999999990    0.0007490000000000 Al
   0.6664169999999990    0.0007490000000000    0.6664169999999990 Al
   0.0007490000000000    0.6664169999999990    0.6664169999999990 Al
   0.6664169999999990    0.6664169999999990    0.6664169999999990 Al
   0.3335829999999990    0.3335829999999990    0.9992510000000000 Al
   0.3335829999999990    0.9992510000000000    0.3335829999999990 Al
   0.9992510000000000    0.3335829999999990    0.3335829999999990 Al
   0.3335829999999990    0.3335829999999990    0.3335829999999990 Al
   0.0000000000000000    0.0000000000000000    0.0000000000000000 Ni
   0.0000000000000000    0.0000000000000000    0.5000000000000000 Ni
   0.5000000000000000    0.0000000000000000    0.5000000000000000 Ni
   0.0000000000000000    0.5000000000000000    0.5000000000000000 Ni
   0.5000000000000000    0.5000000000000000    0.0000000000000000 Ni
   0.0000000000000000    0.5000000000000000    0.0000000000000000 Ni
   0.5000000000000000    0.0000000000000000    0.0000000000000000 Ni
