Nb3 Cu1                                 
   1.00000000000000     
    -0.0000000000000000    3.2272099812513990    3.2272099812513990
     3.2272099812513990    0.0000000000000000    3.2272099812513990
     3.2272099812513990    3.2272099812513990    0.0000000000000000
   Nb   Cu
     3     1
Direct
  0.2500000000000000  0.2500000000000000  0.2500000000000000
  0.7500000000000000  0.7500000000000000  0.7500000000000000
  0.5000000000000000  0.5000000000000000  0.5000000000000000
  0.0000000000000000  0.0000000000000000  0.0000000000000000
 
  0.00000000E+00  0.00000000E+00  0.00000000E+00
  0.00000000E+00  0.00000000E+00  0.00000000E+00
  0.00000000E+00  0.00000000E+00  0.00000000E+00
  0.00000000E+00  0.00000000E+00  0.00000000E+00
