bcc_Al0_Cu6_Nb3_Ni0_Ta0_W0_Zr15         
   1.00000000000000     
     9.4355194739335655    0.0000000000000000    0.0000000000000000
     0.0000000000000000    6.3612982981544866    0.0000000000000000
     0.0000000000000000    0.0000000000000000    7.9038960108095901
   Cu   Nb   Zr
     6     3    15
Direct
  0.1666666666666643  0.2146633306183792  0.2605941869800258
  0.5000000000000000  0.2146633306183792  0.2605941869800258
  0.8333333333333357  0.2146633306183792  0.2605941869800258
  0.1666666666666643  0.7853366693816213  0.2605941869800258
  0.5000000000000000  0.7853366693816213  0.2605941869800258
  0.8333333333333357  0.7853366693816213  0.2605941869800258
 -0.0000000000000000 -0.0000000000000000  0.4829573306530852
  0.3333333333333357 -0.0000000000000000  0.4829573306530852
  0.6666666666666643 -0.0000000000000000  0.4829573306530852
 -0.0000000000000000 -0.0000000000000000  0.0213523780073531
  0.3333333333333357 -0.0000000000000000  0.0213523780073531
  0.6666666666666643 -0.0000000000000000  0.0213523780073531
 -0.0000000000000000  0.5000000000000000  0.4539486263222702
  0.3333333333333357  0.5000000000000000  0.4539486263222702
  0.6666666666666643  0.5000000000000000  0.4539486263222702
  0.1666666666666643  0.2560208271333271  0.7425044364545739
  0.5000000000000000  0.2560208271333271  0.7425044364545739
  0.8333333333333357  0.2560208271333271  0.7425044364545739
 -0.0000000000000000  0.5000000000000000  0.0355444181480912
  0.3333333333333357  0.5000000000000000  0.0355444181480912
  0.6666666666666643  0.5000000000000000  0.0355444181480912
  0.1666666666666643  0.7439791728666730  0.7425044364545739
  0.5000000000000000  0.7439791728666730  0.7425044364545739
  0.8333333333333357  0.7439791728666730  0.7425044364545739
 
  0.00000000E+00  0.00000000E+00  0.00000000E+00
  0.00000000E+00  0.00000000E+00  0.00000000E+00
  0.00000000E+00  0.00000000E+00  0.00000000E+00
  0.00000000E+00  0.00000000E+00  0.00000000E+00
  0.00000000E+00  0.00000000E+00  0.00000000E+00
  0.00000000E+00  0.00000000E+00  0.00000000E+00
  0.00000000E+00  0.00000000E+00  0.00000000E+00
  0.00000000E+00  0.00000000E+00  0.00000000E+00
  0.00000000E+00  0.00000000E+00  0.00000000E+00
  0.00000000E+00  0.00000000E+00  0.00000000E+00
  0.00000000E+00  0.00000000E+00  0.00000000E+00
  0.00000000E+00  0.00000000E+00  0.00000000E+00
  0.00000000E+00  0.00000000E+00  0.00000000E+00
  0.00000000E+00  0.00000000E+00  0.00000000E+00
  0.00000000E+00  0.00000000E+00  0.00000000E+00
  0.00000000E+00  0.00000000E+00  0.00000000E+00
  0.00000000E+00  0.00000000E+00  0.00000000E+00
  0.00000000E+00  0.00000000E+00  0.00000000E+00
  0.00000000E+00  0.00000000E+00  0.00000000E+00
  0.00000000E+00  0.00000000E+00  0.00000000E+00
  0.00000000E+00  0.00000000E+00  0.00000000E+00
  0.00000000E+00  0.00000000E+00  0.00000000E+00
  0.00000000E+00  0.00000000E+00  0.00000000E+00
  0.00000000E+00  0.00000000E+00  0.00000000E+00
