Al9 Zr12 Nb3 
1.0
1.1501090203343681e+01 0.0000000000000000e+00 0.0000000000000000e+00 
0.0000000000000000e+00 6.4148824061922811e+00 0.0000000000000000e+00 
0.0000000000000000e+00 0.0000000000000000e+00 6.3916166581229836e+00 
Al Zr Nb 
9 12 3 
Cartesian
   1.9168522009    4.6414753352    4.8109379005
   1.9168522009    1.7734006561    4.8109379005
   0.0000000152    3.2074412031    6.3328073933
   3.8336929008    3.2074412031    6.3328073933
   5.7505451017    4.6414753352    4.8109379005
   5.7505451017    1.7734070710    4.8109379005
   9.5842380024    4.6414753352    4.8109379005
   9.5842380024    1.7734006561    4.8109379005
   7.6673973026    3.2074412031    6.3328073933
   3.8336929008    0.0000000085    6.2060296768
   0.0000000952    0.0000000251    3.2813281599
   3.8336929008    0.0000000160    3.2813281599
   1.9168522009    1.6481372473    1.6070250015
   1.9168522009    4.7667451589    1.6070250015
   5.7505451017    4.7667451589    1.6070250015
  11.5010902033    0.0000000402    6.2060296768
   5.7505451017    1.6481372473    1.6070250015
   7.6673973026    0.0000000207    6.2060296768
   7.6673973026    0.0000000625    3.2813281599
   9.5842380024    1.6481372473    1.6070250015
   9.5842380024    4.7667451589    1.6070250015
   3.8336929008    3.2074412031    3.3019922566
  11.5010902033    3.2074412031    3.3019922566
   7.6673973026    3.2074412031    3.3019922566
