Ni3 Cu3 Zr3 Nb6 Ta6 W3 
1.0
8.4628432750903624e+00 0.0000000000000000e+00 0.0000000000000000e+00 
7.6408910319573564e-01 5.2160768078842832e+00 0.0000000000000000e+00 
-2.0627078345955302e-01 -1.7844989983676390e-01 9.1168132717207992e+00 
Ni Cu Zr Nb Ta W 
3 3 3 6 6 3 
Cartesian
   1.3667673835    4.8542166056    0.1148590837
   1.1516440555    1.0415078387    2.2990506204
   3.9800388069    4.9730417534    0.0376961995
   6.7296436055    4.9606632925    4.5708875532
   3.5863771660    0.9657048717    6.8547404459
   6.4294224007    1.0387965573    6.7415460923
   5.8330792763    3.6586571610    2.3526939497
   4.6258706638    2.1423087263    8.9891231850
   7.6537063743    2.0668774724    9.0659505705
   3.9364350815    1.0873300842    2.2764500403
   6.8910896774    0.9874925922    2.2962608756
   7.6375072897    2.3157655772    4.5720818558
   4.7749553079    2.2303244106    4.6982220842
   6.6653285666    4.7730475203    9.1167676877
   5.6891465510    3.7976335685    6.7880874241
   1.9648499920    2.3044474866    4.4995576062
   3.7984757303    4.8580006297    4.5290413803
   0.9873058026    4.8929604120    4.4769934933
   0.9492178715    1.0062882405    6.8567552617
   2.8250545895    3.6369283283    6.9579974730
   8.5310013836    3.7223178380    6.8872601189
   2.1141988037    2.2525794443    0.0593734288
   2.8912666041    3.6553288331    2.1421958481
   8.7635349826    3.6614364179    2.2181662531
