Ni16 Cu4 Nb8 Ta4 
1.0
7.7060917198732950e+00 0.0000000000000000e+00 0.0000000000000000e+00 
8.9926004751003002e-07 7.4689172472435823e+00 0.0000000000000000e+00 
-3.2695051970399320e-07 2.8232257072249312e-07 7.6843251598231586e+00 
Ni Cu Nb Ta 
16 4 8 4 
Cartesian
   3.8557966290    0.1476346321    7.6031710018
   5.7768175987    1.7195989728    7.6031710018
   3.8557970565    1.7195987671    2.0022354480
   5.7768176477    0.1476344263    2.0022354480
   3.8952832283    3.6884875800    3.8660454625
   5.7373322167    5.6476592631    3.8660454625
   3.8952833844    5.6476593320    5.7393609873
   5.7373319011    3.6884876488    5.7393609873
   7.5720672339    0.1965424570    3.8186715979
   2.0605473158    1.6706848947    3.8186715979
   7.5720673276    1.6706849671    5.7867348519
   2.0605470546    0.1965425293    5.7867348519
   3.9682440607    0.0250318472    3.9328068795
   5.6643704793    1.8422011146    3.9328068795
   3.9682442055    1.8422011785    5.6725995703
   5.6643701864    0.0250319111    5.6725995703
   0.0039215623    0.1475394982    0.0182222245
   1.9226007356    1.7196883212    0.0182222245
   0.0039216560    1.7196883904    1.9028617550
   1.9226004661    0.1475395674    1.9028617550
   7.6527735208    3.4743387884    3.9657803188
   1.9798419156    5.8618080621    3.9657803188
   7.6527737371    5.8618081236    5.6396261310
   1.9798415569    3.4743388499    5.6396261310
   7.6172097652    3.5656912476    7.5692600749
   2.0154053646    5.7704558676    7.5692600749
   7.6172102661    5.7704556644    2.0361463749
   2.0154053345    3.5656910443    2.0361463749
   3.9309468396    3.5056187475    7.6050997674
   5.7016682871    5.8305283704    7.6050997674
   3.9309473580    5.8305281645    2.0003066824
   5.7016682457    3.5056185416    2.0003066824
