Nb1 Ni3
1.0
   3.6954769999999999    0.0000000000000000    0.0000000000000000
   0.0000000000000000    3.6954769999999999    0.0000000000000000
   0.0000000000000000    0.0000000000000000    3.6954769999999999
Nb Ni
1 3
direct
   0.0000000000000000    0.0000000000000000    0.0000000000000000 Nb
   0.0000000000000000    0.5000000000000000    0.5000000000000000 Ni
   0.5000000000000000    0.5000000000000000    0.0000000000000000 Ni
   0.5000000000000000    0.0000000000000000    0.5000000000000000 Ni
