Al6 W3 
1.0
4.8144303097414207e+00 0.0000000000000000e+00 0.0000000000000000e+00 
-2.4072151548903373e+00 4.1694189528741594e+00 0.0000000000000000e+00 
-1.3511936784237158e-13 3.9299006985321424e-13 6.7926110422158610e+00 
Al W 
6 3 
Cartesian
  -1.1818969040    3.4619811309    1.1321041046
   1.2253182509    0.7074378220    5.6605069376
   2.4072151549    2.7545433089    3.3963055211
   3.5891120588    0.7074378220    1.1321041046
   1.1818969039    3.4619811309    5.6605069376
  -0.0000000000    1.4148756440    3.3963055211
  -0.0000000000    4.1694189529    3.3963055211
  -1.2036075774    2.0847094764    5.6605069376
   1.2036075774    2.0847094764    1.1321041046
