Converted from final.data
1.0
14.7916481455651816 0.0000000000000000 0.0000000000000000
-0.6576134686865445 31.2015079676522262 0.0000000000000000
-0.0244980847048162 0.1837464797007044 15.2419204724313246
Al Zr Nb Ta Ni Cu
6 6 16 11 13 5
Direct
0.5785331305236374 0.2256011145304551 0.7946754359960516
0.0013314666331205 0.0176940729171807 0.7346847829409420
0.2944006874403788 0.3614285264968976 0.2732560454838517
0.3998112127506607 0.4926506639721743 0.4130942044265478
0.8006484157057610 0.3990651316789406 0.5296734094212752
0.4573915139236285 0.2273781927630331 0.3246669463556178
0.0359739022036645 0.1623689402424785 0.0279010579466912
0.4061354191971513 0.4068855128910215 0.6416702288079810
0.2592017752270256 0.3228901265717986 0.8552119598754353
0.7675784405791899 0.1982317636380748 0.8173482009037111
0.4527214372901932 0.1449639297760179 0.8216731979648435
-0.0026789977515939 0.1249407114190708 0.2440498938170973
0.4363997781251374 0.1834669158590203 0.4917592996671161
0.3974700874070574 0.2529341240999747 0.6161471531231580
0.7046694562863712 0.8745675997065202 0.4363563782361784
0.5751214552809402 0.1793566780551596 0.2350671536125017
0.6414209468635189 0.4890924923234898 0.2631650170952611
0.6171468871618911 0.3984349747360552 0.2377702898640031
0.4874121735147435 0.5500511355103642 0.2884472922603336
0.4669692502329549 0.3384867554346946 0.5336658418308310
0.5969386161768497 0.3915576000097408 -0.0216418528882201
0.4583781298886938 0.3195895697362633 0.2802268428504307
0.8485245535960108 0.2927086628828790 0.2800602311247847
0.1363796060328755 0.5542995794204324 0.4583231414292422
0.4948835801020540 0.1327645754243180 0.3530555131032990
0.2203996172779161 0.2336192138275562 0.5643840625982489
0.3159086250062871 0.5744420644216082 0.3901191522784497
0.6338034005229538 0.2720641941603210 0.2863069285920002
0.2239563385634210 0.2355237193522450 0.7479928652365465
0.4083972897474363 0.5128060593879187 0.9228603621668093
0.1847703222246087 0.1085870261897439 0.1053163674378262
0.2957936542441822 0.1591523554535994 0.6239684931971829
0.2256251193260083 0.4823294951281187 0.5013159578155382
0.5149065456608146 0.4512173349637368 0.9301206512411639
0.1332919613428780 0.4926607961456017 0.3278492826601478
0.6836533241172636 0.5976917408860478 0.4379197460397846
0.5787678518018871 0.0314977613043142 0.3462993232813156
0.0525332885753213 0.2308824112263116 0.6586743229631115
0.4961346662670680 0.0998838068428819 0.5269851403742213
0.4989591282208632 0.2525655432778104 0.1758992095123987
0.1520881280544861 0.3404528832302103 0.3112333039264163
0.1426579683083125 0.3180286284995034 0.6662230897872660
0.1833954923433053 0.2534072456809653 0.1191702566765401
0.7460774927395858 0.6060002319757055 0.5979074051679217
0.2639000002125173 0.3910979382598601 0.7683103178016077
0.4554521917437537 0.4762787176295314 0.2593500695018345
0.7142002355924499 0.6525527906559995 0.2947541531944654
0.1247025051556015 0.4312215425836929 0.0416266494112152
0.4440274227113964 0.6994529674653426 0.9347566595233764
0.3869584273797932 0.0469785676610590 0.3969480388039215
0.5784356808171930 0.0857044101316229 0.6897501877859663
0.3415247824601363 0.2295530073759713 0.1416322884920705
0.7955623390651922 0.1587963878798854 0.0205183861272624
0.1096663130731328 0.2664508286347529 0.2471255052970799
0.8406502677523409 0.3174751615279889 0.6417343739254245
0.4347595347199756 0.4900192188973482 0.5827773212174948
0.1362492035362328 0.2898542005484039 0.0037661864641684
