Cu8 Nb4 Ta4 W16 
1.0
6.4750024619935518e+00 0.0000000000000000e+00 0.0000000000000000e+00 
0.0000000000000000e+00 8.7428846829038296e+00 0.0000000000000000e+00 
0.0000000000000000e+00 0.0000000000000000e+00 8.7345541970321587e+00 
Cu Nb Ta W 
8 4 4 16 
Cartesian
   1.5111490246    2.2273110732    4.4108363203
   0.1076002959    2.2273110732    6.5073564260
   3.2549966876    4.3045505307    4.4223135245
   4.8387563898    4.3045505307    6.4958792218
   0.1076002959    8.7012947805    4.4108363203
   1.5111490246    8.7012947805    6.5073564260
   4.8387563898    6.6240553229    4.4223135245
   3.2549966876    6.6240553229    6.4958792218
   3.2157257977    2.1860446575    2.2890296802
   4.8780272798    8.7425611962    2.2890296802
   4.8780272798    2.1860446575    8.6291630661
   3.2157257977    8.7425611962    8.6291630661
   3.1951482399    6.5568575112    2.2407363300
   4.8986113126    4.3717483424    2.2407363300
   3.1951417649    4.3717483424    8.6774564162
   4.8986048376    6.5568575112    8.6774564162
   0.0080588528    2.1769433145    2.2334604464
   1.6106892374    0.0087818779    2.2334604464
   1.5660764705    4.3626819710    2.2515846464
   0.0526741450    6.5659151397    2.2515846464
   4.9320158503    2.1726505581    4.4617587713
   3.1617372272    2.1726505581    6.4564339750
   0.0080582701    0.0087817031    8.6847322999
   1.6106892374    2.1769433145    8.6847322999
   0.0526755695    4.3626819710    8.6666080999
   3.1617372272    0.0130671154    4.4617587713
   4.9320158503    0.0130669406    6.4564339750
   0.0059114441    4.3953279024    4.4243050029
   1.6128389383    4.3953279024    6.4938877434
   1.6128389383    6.5332779512    4.4243050029
   0.0059132701    6.5332779512    6.4938877434
   1.5660764705    6.5659151397    8.6666080999
