Converted from final.data
1.0
34.5839813300237182 0.0000000000000000 0.0000000000000000
0.4865407968647332 15.7924711153616801 0.0000000000000000
-0.0571990014696718 0.4344947843083296 14.9351037887850921
Al W Ni Zr Nb Ta
16 17 2 8 8 12
Direct
0.9901963373794844 0.7870533676580342 0.0000913262993011
0.9995296392814648 0.3671167713717094 -0.0288910814189366
0.2146562006182615 0.2177290208108766 0.3111000190278705
0.4718838948802304 0.2965277108225612 0.2014764280584154
0.3856203379032245 0.3097486258307665 0.8572917416681047
0.5709436947795418 0.3157280289353968 0.9148225172663710
0.1334271744131507 0.5074592705448173 0.9386452265242192
0.9253814895683281 0.5293959987686422 0.1441628096788473
0.1304642470868065 0.3102128766650933 0.5812946591788816
0.2633791667471045 0.2841456248037615 0.2088645607561216
0.9838692590456264 0.9527196067309254 0.6841776663341608
0.0302692637569516 -0.0090853987920382 0.4173811805363894
0.7142885891388698 0.2312297103250345 0.7837344673803200
0.1622741292314756 0.5583054673463879 0.2470270971349792
0.4514659560236317 0.6260554346866606 0.0941993073726019
0.0614938100640482 0.9472523651630649 0.8000760737821656
0.0674937835829178 0.2910811713396063 0.4896419758078840
0.0855084784785238 0.1060669817640394 0.3302697932522441
-0.0034790675366387 0.3240222766773365 0.5986848624960893
0.2799920513371233 0.4548641816499996 0.9496484083567547
0.5125264087398029 0.3235582983878619 0.0165998520367924
0.2841713861774044 0.2026845383259185 0.0224669781113342
0.1940441280613022 0.2064467626099212 0.8225342824462814
0.2233412891149724 0.5040587787519030 0.3792616917636635
0.2882291975113369 0.1685667685202481 0.3676548266338714
0.3463013837187066 0.9969842876141910 0.2314254674967371
0.5043664414555163 0.1262320567628218 0.4614085031939747
0.2513832128701294 0.5249273367037408 0.8120503355304980
0.3447522673479669 0.3836529287833871 0.1650163681457882
0.0564275973747625 0.2921098564147329 0.3095531659323520
0.3339716287137731 0.2275393104758519 0.1854071761532452
0.4330388071519777 0.1016481809023364 0.4317739581330152
0.2441560736199432 0.0262467994942394 0.3938282577677972
0.7030986356431101 0.5388481087150677 0.5085066635187649
0.6569073875206376 0.5483404607828726 0.9866087576428691
0.0980188483088903 0.6614557027822230 0.3326002294775077
0.5275282291731764 0.2631290058661414 0.7631014589175877
0.4754535863299523 0.3430951841581366 0.9026708388538776
0.2025156873193712 0.1827765300775259 0.1242438089289034
0.2060360810083216 0.1962655560096539 0.5080800196298002
0.9980998462101518 0.4262577452315970 0.1782655401702024
0.1955210978218608 0.3913182717210819 0.2354626502049281
0.1452175900163037 0.3879443616518509 0.0622293551699788
0.1040059842133475 0.4498069034905767 0.2235189627977029
0.0162169134247408 0.4678443664603609 0.2783549652460611
0.5458183936436976 0.2969152725793575 0.2106953089402973
0.2805463591448425 0.3657500726338980 0.0450998757076947
0.1221507694631966 0.3618155355702191 0.7672090884098740
0.2931131190527452 0.7738666201074871 0.9450919435781409
-0.0421483644253381 0.4810177340857549 0.3781615887834741
0.2161518125494281 0.8209494365641948 0.8206568857682177
-0.0088850059494964 0.3383523848769098 0.4060172270966535
0.1677010945565345 0.0926774416474001 0.3569899859088532
0.0628732079010179 0.2286209719352248 0.6608952876168988
0.6324280935126352 0.4068881121976793 -0.0416356582165869
0.0568431972790817 0.7924013882297725 0.2120632989609795
0.4036789593436860 0.2591492268661117 0.3126345834210821
0.2805413908344540 0.0839271401031439 0.2019500825922244
0.8824111154268678 0.4339602930695398 0.0256740983979841
0.4797993804087701 0.5909264219849867 0.2707751975437589
0.8137680930942407 0.2314678108938015 0.2896216619145308
0.9771252000380739 0.2440501226555287 0.5017279704700736
0.6345041965235398 0.0316861647685729 0.8982348305213727
