Zr14 Cu20                               
   1.00000000000000     
     9.3974561699807797    0.0000000000000000    0.0000000000000000
     0.0000000000000000    4.6838726368875792    6.3613981188320148
     0.0000000000000000   -4.6838726368875792    6.3613981188320148
   Zr   Cu
    14    20
Direct
  0.5000000000000000  0.7564581275196252  0.7564581275196252
  0.0000000000000000  0.2564591275196225  0.2564591275196225
  0.7499901200906300  0.9298158279187307  0.4624593569154943
  0.2500088799093724  0.4624593569154943  0.9298158279187307
  0.7500098799093700  0.4298158279187309  0.9624603569154917
  0.2499901200906300  0.9624603569154917  0.4298158279187309
  0.8056383109497588  0.6362851129957825  0.2559919587843113
  0.1943616890502412  0.2559919587843113  0.6362851129957825
  0.6943616890502412  0.1362851129957825  0.7559909587843139
  0.3056383109497587  0.7559909587843139  0.1362851129957825
  0.5000000000000000  0.4461520828409921  0.4461520828409921
  0.0000000000000000  0.9461520828409919  0.9461520828409919
  0.5000000000000000  0.1358033704858670  0.1358033704858670
  0.0000000000000000  0.6358023704858622  0.6358023704858622
  0.7953160660186018  0.0713695563524610  0.1117605939663934
  0.2046849339813958  0.1117605939663934  0.0713695563524610
  0.7046839339813982  0.5713695563524611  0.6117605939663934
  0.2953160660186017  0.6117605939663934  0.5713695563524611
  0.7046854866376883  0.2804914076729965  0.3209455564265363
  0.2953145133623117  0.3209455564265363  0.2804914076729965
  0.7953145133623117  0.7804914076729966  0.8209465564265339
  0.2046854866376883  0.8209465564265339  0.7804914076729966
  0.5077103596555116  0.7964391411707445  0.3881524804982301
  0.4922896403444883  0.3881524804982301  0.7964391411707445
  0.9922896403444884  0.2964401411707493  0.8881524804982298
  0.0077103596555117  0.8881524804982298  0.2964401411707493
  0.5077320985190764  0.5041048665334216  0.0958005430510973
  0.4922669014809259  0.0958005430510973  0.5041048665334216
  0.9922669014809261  0.0041058665334191  0.5957995430510997
  0.0077330985190739  0.5957995430510997  0.0041058665334191
  0.6011979671298529  0.8405386032871577  0.0517254035801644
  0.3988020328701469  0.0517254035801644  0.8405386032871577
  0.8988020328701471  0.3405376032871605  0.5517264035801618
  0.1011979671298529  0.5517264035801618  0.3405376032871605
 
  0.00000000E+00  0.00000000E+00  0.00000000E+00
  0.00000000E+00  0.00000000E+00  0.00000000E+00
  0.00000000E+00  0.00000000E+00  0.00000000E+00
  0.00000000E+00  0.00000000E+00  0.00000000E+00
  0.00000000E+00  0.00000000E+00  0.00000000E+00
  0.00000000E+00  0.00000000E+00  0.00000000E+00
  0.00000000E+00  0.00000000E+00  0.00000000E+00
  0.00000000E+00  0.00000000E+00  0.00000000E+00
  0.00000000E+00  0.00000000E+00  0.00000000E+00
  0.00000000E+00  0.00000000E+00  0.00000000E+00
  0.00000000E+00  0.00000000E+00  0.00000000E+00
  0.00000000E+00  0.00000000E+00  0.00000000E+00
  0.00000000E+00  0.00000000E+00  0.00000000E+00
  0.00000000E+00  0.00000000E+00  0.00000000E+00
  0.00000000E+00  0.00000000E+00  0.00000000E+00
  0.00000000E+00  0.00000000E+00  0.00000000E+00
  0.00000000E+00  0.00000000E+00  0.00000000E+00
  0.00000000E+00  0.00000000E+00  0.00000000E+00
  0.00000000E+00  0.00000000E+00  0.00000000E+00
  0.00000000E+00  0.00000000E+00  0.00000000E+00
  0.00000000E+00  0.00000000E+00  0.00000000E+00
  0.00000000E+00  0.00000000E+00  0.00000000E+00
  0.00000000E+00  0.00000000E+00  0.00000000E+00
  0.00000000E+00  0.00000000E+00  0.00000000E+00
  0.00000000E+00  0.00000000E+00  0.00000000E+00
  0.00000000E+00  0.00000000E+00  0.00000000E+00
  0.00000000E+00  0.00000000E+00  0.00000000E+00
  0.00000000E+00  0.00000000E+00  0.00000000E+00
  0.00000000E+00  0.00000000E+00  0.00000000E+00
  0.00000000E+00  0.00000000E+00  0.00000000E+00
  0.00000000E+00  0.00000000E+00  0.00000000E+00
  0.00000000E+00  0.00000000E+00  0.00000000E+00
  0.00000000E+00  0.00000000E+00  0.00000000E+00
  0.00000000E+00  0.00000000E+00  0.00000000E+00
