Al9 Ni3 Cu3 Nb6 Ta3 
1.0
1.3712237572626954e+01 0.0000000000000000e+00 0.0000000000000000e+00 
2.1383077284906342e-04 2.9116226187785728e+00 0.0000000000000000e+00 
-1.3102330199545741e-05 -6.3565948659371325e-04 9.2175326560041047e+00 
Al Ni Cu Nb Ta 
9 3 3 6 3 
Cartesian
   0.1659275320    1.6983427447    1.9975038493
   4.4050685201    1.6983427447    1.9975038493
   2.2854968040    1.6982720562    3.8247322178
   9.1416168375    1.6982745362    2.9443564563
   2.2854897880    1.6975051916    8.7383960910
   6.7100579774    1.6978626742    9.2122049221
   4.7145329433    1.6979099720    6.9641869703
  11.5731441693    1.6978626742    9.2122049221
  13.5686892908    1.6979099720    6.9641869703
   6.7708362218    0.2421916082    7.2250154919
   9.1415071536    0.2423802672    4.8946388858
  11.5121577440    0.2421916082    7.2250154919
   2.2853929919    0.2425239776    1.6369969296
   4.4814520645    0.2418887518    9.1045257056
   0.0892989599    0.2418887518    9.1045257056
   6.7896287714    0.2424368934    2.4480199754
   4.5986708485    0.2427184614    4.5039629817
   9.1415134407    0.2428201919    0.4786664708
  11.4933787626    0.2424368934    2.4480199754
  13.6843309029    0.2427184614    4.5039629817
   2.2853862678    0.2411527245    6.3132909018
   7.0012570039    1.6982122367    5.0299246126
   9.1416107304    1.6980362755    7.2437270832
  11.2819570416    1.6982122367    5.0299246126
