Zr2 
1.0
3.2393893110610121e+00 0.0000000000000000e+00 0.0000000000000000e+00 
-1.6195540680207381e+00 2.8053940023483053e+00 0.0000000000000000e+00 
5.8565867504704943e-10 -3.8168386076285154e-09 5.1580090238181837e+00 
Zr 
2 
Cartesian
   0.0000888661    1.8702636024    1.2895022560
   1.6197463775    0.9351303961    3.8685067679
