bcc_Al3_Cu0_Nb0_Ni6_Ta9_W3_Zr3          
   1.00000000000000     
    10.3325646519948151    0.0000000000000000    0.0000000000000000
     0.0000000000000000    6.1637048741997473   -0.1402213514524132
     0.0000000000000000   -0.1416715277871093    6.1459216800271754
   Al   Ni   Ta   W    Zr
     3     6     9     3     3
Direct
  0.0000000000000000  0.5000000000000000 -0.0000000000000000
  0.3333333333333357  0.5000000000000000 -0.0000000000000000
  0.6666666666666643  0.5000000000000000 -0.0000000000000000
  0.1666666666666643  0.2623008925255573  0.2455661806532226
  0.5000000000000000  0.2623008925255573  0.2455661806532226
  0.8333333333333357  0.2623008925255573  0.2455661806532226
  0.1666666666666643  0.7376991074744431  0.7544338193467776
  0.5000000000000000  0.7376991074744431  0.7544338193467776
  0.8333333333333357  0.7376991074744431  0.7544338193467776
  0.0000000000000000  0.5000000000000000  0.5000000000000000
  0.3333333333333357  0.5000000000000000  0.5000000000000000
  0.6666666666666643  0.5000000000000000  0.5000000000000000
  0.1666666666666643  0.7474466711774655  0.2646375252317636
  0.5000000000000000  0.7474466711774655  0.2646375252317636
  0.8333333333333357  0.7474466711774655  0.2646375252317636
  0.1666666666666643  0.2525533288225347  0.7353624747682362
  0.5000000000000000  0.2525533288225347  0.7353624747682362
  0.8333333333333357  0.2525533288225347  0.7353624747682362
  0.0000000000000000 -0.0000000000000000  0.5000000000000000
  0.3333333333333357 -0.0000000000000000  0.5000000000000000
  0.6666666666666643 -0.0000000000000000  0.5000000000000000
  0.0000000000000000 -0.0000000000000000 -0.0000000000000000
  0.3333333333333357 -0.0000000000000000 -0.0000000000000000
  0.6666666666666643 -0.0000000000000000 -0.0000000000000000
 
  0.00000000E+00  0.00000000E+00  0.00000000E+00
  0.00000000E+00  0.00000000E+00  0.00000000E+00
  0.00000000E+00  0.00000000E+00  0.00000000E+00
  0.00000000E+00  0.00000000E+00  0.00000000E+00
  0.00000000E+00  0.00000000E+00  0.00000000E+00
  0.00000000E+00  0.00000000E+00  0.00000000E+00
  0.00000000E+00  0.00000000E+00  0.00000000E+00
  0.00000000E+00  0.00000000E+00  0.00000000E+00
  0.00000000E+00  0.00000000E+00  0.00000000E+00
  0.00000000E+00  0.00000000E+00  0.00000000E+00
  0.00000000E+00  0.00000000E+00  0.00000000E+00
  0.00000000E+00  0.00000000E+00  0.00000000E+00
  0.00000000E+00  0.00000000E+00  0.00000000E+00
  0.00000000E+00  0.00000000E+00  0.00000000E+00
  0.00000000E+00  0.00000000E+00  0.00000000E+00
  0.00000000E+00  0.00000000E+00  0.00000000E+00
  0.00000000E+00  0.00000000E+00  0.00000000E+00
  0.00000000E+00  0.00000000E+00  0.00000000E+00
  0.00000000E+00  0.00000000E+00  0.00000000E+00
  0.00000000E+00  0.00000000E+00  0.00000000E+00
  0.00000000E+00  0.00000000E+00  0.00000000E+00
  0.00000000E+00  0.00000000E+00  0.00000000E+00
  0.00000000E+00  0.00000000E+00  0.00000000E+00
  0.00000000E+00  0.00000000E+00  0.00000000E+00
