Al1 Cu1
1.0
   2.9975090000000000    0.0000000000000000    0.0000000000000000
   0.0000000000000000    2.9975090000000000    0.0000000000000000
   0.0000000000000000    0.0000000000000000    2.9975090000000000
Al Cu
1 1
direct
   0.0000000000000000    0.0000000000000000    0.0000000000000000 Al
   0.5000000000000000    0.5000000000000000    0.5000000000000000 Cu
