Cu4 Zr2 
1.0
3.8873331331282448e+00 0.0000000000000000e+00 0.0000000000000000e+00 
-1.9436665632650791e+00 5.8248998048535947e+00 0.0000000000000000e+00 
-3.3648878790487668e-15 2.1413923078854188e-15 4.0872284819956874e+00 
Cu Zr 
4 2 
Cartesian
   0.0000000027    4.6876347172    3.0654213615
   1.9436665682    2.9649904987    3.0654213615
   0.0000000016    2.8599093062    1.0218071205
   1.9436665672    1.1372650877    1.0218071205
  -0.0000003881    1.0937064870    3.0654213615
   1.9436665692    4.7311933179    1.0218071205
