Zr4 Al2
1.0
   4.8997764100000003   -0.0000000100000000    0.0000000000000000
  -2.4498892200000002    4.2433311099999997   -0.0000000000000000
   0.0000000000000000    0.0000000000000000    5.9356559500000001
Zr Al
4 2
direct
  -0.0000000000000000   -0.0000000000000000    0.0000000000000000 Zr
  -0.0000000000000000   -0.0000000000000000    0.5000000000000000 Zr
   0.3333330000000000    0.6666670000000000    0.7500000000000000 Zr
   0.6666670000000000    0.3333330000000000    0.2500000000000000 Zr
   0.3333330000000000    0.6666670000000000    0.2500000000000000 Al
   0.6666670000000000    0.3333330000000000    0.7500000000000000 Al
