Al9 Ni3 Cu9 Ta3 
1.0
8.5186400687077626e+00 0.0000000000000000e+00 0.0000000000000000e+00 
1.0714701911306568e-08 4.1515584599905155e+00 0.0000000000000000e+00 
1.2633368416647852e-09 2.2118562162642772e+00 9.4202605390986189e+00 
Al Ni Cu Ta 
9 3 9 3 
Cartesian
   1.4197761860    1.1120684631    2.4412510984
   4.3137711833    1.0715437571    2.3563745510
   7.0444127387    1.0715437571    2.3563745510
   2.9098567069    2.3894683915    9.3595752207
   2.8542470331    4.9073077394    4.9873967980
   1.4197761880    2.6809548694    6.9140850050
   5.6790962204    2.3952394096    9.3762114008
   8.4483272153    2.3894683915    9.3595752207
   8.5039454249    4.9073077394    4.9873967980
   4.2280907055    2.2119873786    0.1719150447
   5.6790962258    3.1767138749    2.2115192047
   7.1300932245    2.2119873786    0.1719150447
   1.4197761900    2.2067794793    0.1575321909
   2.7911068698    3.1982379531    2.1508998281
   4.1085741850    2.8353891006    4.1677022474
   1.4197761896    2.8527439490    4.3599226637
   0.0484411688    3.1982379531    2.1508998281
   7.2496097444    2.8353891006    4.1677022474
   0.0237261251    4.7659322249    7.5423692817
   2.8158194462    4.7659322249    7.5423692817
   5.6790962273    4.7452913567    7.6231762766
   5.6790962290    4.8905775299    4.9568280525
   4.2712205783    2.6946674482    6.7650659035
   7.0869633480    2.6946674482    6.7650659035
