bcc_Al6_Cu0_Nb6_Ni0_Ta3_W0_Zr9          
   1.00000000000000     
    10.3933205665271782    0.0000000000000000    0.0000000000000000
     0.0000000000000000    6.9927712953655954    0.0000000000000000
     0.0000000000000000    0.0000000000000000    6.4052255337031330
   Al   Nb   Ta   Zr
     6     6     3     9
Direct
  0.0000000000000000  0.0157463919989134 -0.0118198857836065
  0.3333333333333357  0.0157463919989134 -0.0118198857836065
  0.6666666666666643  0.0157463919989134 -0.0118198857836065
  0.0000000000000000  0.4842536080010866 -0.0118198857836065
  0.3333333333333357  0.4842536080010866 -0.0118198857836065
  0.6666666666666643  0.4842536080010866 -0.0118198857836065
  0.0000000000000000  0.0075079456884368  0.5116815580148480
  0.3333333333333357  0.0075079456884368  0.5116815580148480
  0.6666666666666643  0.0075079456884368  0.5116815580148480
  0.0000000000000000  0.4924920543115632  0.5116815580148480
  0.3333333333333357  0.4924920543115632  0.5116815580148480
  0.6666666666666643  0.4924920543115632  0.5116815580148480
  0.1666666666666643  0.2500000000000000  0.7374862364526226
  0.5000000000000000  0.2500000000000000  0.7374862364526226
  0.8333333333333357  0.2500000000000000  0.7374862364526226
  0.1666666666666643  0.2500000000000000  0.2551564622550952
  0.5000000000000000  0.2500000000000000  0.2551564622550952
  0.8333333333333357  0.2500000000000000  0.2551564622550952
  0.1666666666666643  0.7500000000000000  0.7553830619391061
  0.5000000000000000  0.7500000000000000  0.7553830619391061
  0.8333333333333357  0.7500000000000000  0.7553830619391061
  0.1666666666666643  0.7500000000000000  0.2522508948906929
  0.5000000000000000  0.7500000000000000  0.2522508948906929
  0.8333333333333357  0.7500000000000000  0.2522508948906929
 
  0.00000000E+00  0.00000000E+00  0.00000000E+00
  0.00000000E+00  0.00000000E+00  0.00000000E+00
  0.00000000E+00  0.00000000E+00  0.00000000E+00
  0.00000000E+00  0.00000000E+00  0.00000000E+00
  0.00000000E+00  0.00000000E+00  0.00000000E+00
  0.00000000E+00  0.00000000E+00  0.00000000E+00
  0.00000000E+00  0.00000000E+00  0.00000000E+00
  0.00000000E+00  0.00000000E+00  0.00000000E+00
  0.00000000E+00  0.00000000E+00  0.00000000E+00
  0.00000000E+00  0.00000000E+00  0.00000000E+00
  0.00000000E+00  0.00000000E+00  0.00000000E+00
  0.00000000E+00  0.00000000E+00  0.00000000E+00
  0.00000000E+00  0.00000000E+00  0.00000000E+00
  0.00000000E+00  0.00000000E+00  0.00000000E+00
  0.00000000E+00  0.00000000E+00  0.00000000E+00
  0.00000000E+00  0.00000000E+00  0.00000000E+00
  0.00000000E+00  0.00000000E+00  0.00000000E+00
  0.00000000E+00  0.00000000E+00  0.00000000E+00
  0.00000000E+00  0.00000000E+00  0.00000000E+00
  0.00000000E+00  0.00000000E+00  0.00000000E+00
  0.00000000E+00  0.00000000E+00  0.00000000E+00
  0.00000000E+00  0.00000000E+00  0.00000000E+00
  0.00000000E+00  0.00000000E+00  0.00000000E+00
  0.00000000E+00  0.00000000E+00  0.00000000E+00
