Zr1 
1.0
3.2135992953346069e+00 0.0000000000000000e+00 0.0000000000000000e+00 
1.6067996467331205e+00 2.7830586276840195e+00 0.0000000000000000e+00 
1.6067996479653657e+00 9.2768620903566157e-01 2.6238928372021038e+00 
Zr 
1 
Cartesian
   0.0000000000    0.0000000000    0.0000000000
