Ni12 Zr6 Ta3 W3 
1.0
9.4889727978776897e+00 0.0000000000000000e+00 0.0000000000000000e+00 
-7.9555446298651272e-02 5.0022977149531807e+00 0.0000000000000000e+00 
-1.0727837622724463e+00 -1.4937828306842180e-01 7.7973632763730167e+00 
Ni Zr Ta W 
12 6 3 3 
Cartesian
   0.7446493698    0.1189064239    2.8023879563
   0.5443171526    1.3954058925    0.7243329426
   2.1139113071    1.5410151985    4.3312325686
   2.5208051355    0.1335302276    6.9825544087
   0.8680468717    3.9628793351    5.2805537501
   4.0383957072    0.2567717174    5.1610045764
   5.5388368760    0.0336888047    3.2702765370
   4.4424793875    2.3367935304    3.9297541308
   7.7484747267   -0.0395286784    6.8073164664
   6.1150221563    1.3548347491    5.4242513579
   5.8911112424    3.8380750504    5.4182629829
   8.0982376583    2.7248303338    5.2531538156
   3.2782320526    1.5011632722    1.5591763555
   0.0445151194    2.5943358472    2.9845733492
   1.5282068695    3.9572276302    0.4002901196
   3.4452267911    2.6868057116    6.4379397733
   6.5625847254    2.4322561349    2.6884840735
   6.7967976629    2.5551053462    7.6683013194
   2.7691254721    4.0176938127    3.4225044603
   0.4599289785    1.3972660004    6.2189898125
   8.0383397516    0.0757567637    4.2635202659
   4.5861038188    4.0217754451    1.2821672277
   7.9110727005    0.0358319700    1.5848296806
   5.1210512225    0.1463627156    7.4698662214
