Nb7
1.0
   2.9843281600000000   -0.0315964300000000    0.0291659600000000
   0.1134715900000000    4.6161631700000001    0.1691915400000000
   0.8994547500000000    2.2220431700000001    9.4030943899999997
Nb
7
direct
   0.6424745700000000    0.2151334700000000    0.5715585000000000 Nb
   0.3575254300000000    0.7848665300000001    0.4284415000000000 Nb
   0.9283669100000000    0.6449219300000000    0.7145185700000000 Nb
   0.0716330900000000    0.3550780700000000    0.2854814300000000 Nb
   0.2138216900000000    0.0728210500000000    0.8573438400000000 Nb
   0.7861783100000000    0.9271789500000001    0.1426561600000000 Nb
   0.5000000000000000    0.5000000000000000    0.0000000000000000 Nb
