Converted from final.data
1.0
14.9517701277666397 0.0000000000000000 0.0000000000000000
0.1718323376485583 30.6208348096518321 0.0000000000000000
0.0795856138580977 -0.4604891059526488 15.3315241432714107
Cu W Ni Zr Nb
8 23 10 16 2
Direct
0.2870772742213566 0.7633493702803361 0.2091469888652623
0.3557252830261606 0.8926294825371501 0.1479890871059227
0.5011517843220630 0.8691053200037614 0.2727592175845971
0.3138922774046929 0.0122495046822570 -0.0369461567495403
0.3748306037112766 0.0832477844372209 0.3670045185639912
0.0019924620102180 0.0214739802709160 0.1851455739137602
0.0288546114745056 0.1552920708683355 0.3512317306638875
0.2422483904691267 0.1175106931229082 0.3765419362001015
0.1205445956539621 0.7138633916625170 0.2139777559127884
0.2532177819797647 0.9174094661861403 0.2940574016758320
-0.0345625402031063 0.1001680455223911 0.2226026742568973
0.2612462740642403 -0.0253586172460224 0.5117718666663900
0.1641817862866371 0.9836960567237606 0.3826233777125669
0.2650318455779648 0.0628512998526200 0.2323430991968052
0.1135474243891134 0.0043949380987740 0.2875654352485087
0.0972132301379510 0.1618036852398473 0.0603868860997639
0.1612732011849534 0.1510262716990524 0.2408659044867203
0.3500690288906511 0.1762481345241432 0.9908061394306596
0.3500502250441449 0.1408003754002899 0.2352803393011480
-0.0322985474293008 -0.0341353986178085 0.3379796960470336
0.1194977084281005 0.0818692329953330 0.1293568082071328
0.1066301828412522 0.0835649326081850 0.3235103335331463
0.3550332005371994 0.9826623530375607 0.3737444200709452
-0.0222737558325717 0.1799034865448588 0.1972683241928602
0.1992580946026159 0.0040605260276118 0.0891029488282632
0.2480181222148156 0.0252056504463701 0.3758329353050886
0.2653296021569617 0.1511988720077322 0.0889740697698398
0.9465146877982382 0.9211773712020332 0.3659238553283841
0.1068044403395110 0.8910709965130891 0.3872657312055229
0.3463744703723820 0.8385197265821969 0.2730687634735406
0.2644579366128941 -0.0370547412964935 0.2267126049519335
0.4240459221811795 0.7167915041332272 0.1497802676531894
0.3668376005500086 0.8446567009722877 0.8690101071471277
0.3603362941661478 0.7941601951158443 -0.0358517010948783
0.1681211543774986 0.7791030491267390 -0.0304678638934369
0.0444001196880690 0.9977679262746988 0.0761892125164194
0.3112452285247536 0.7721674030744748 0.3775407933912941
0.1158007467603266 0.8609553415158675 0.0085627229290564
0.9171987215141328 0.8404583340528007 -0.0073412592865827
-0.0188790407757904 0.8563849352377166 0.2958598839431940
0.7766615371168036 0.9083942843815629 0.2630545283072372
0.2511200843568177 0.8268962347382793 0.0937688805355012
0.4365781241586136 0.0816815815197570 0.9995295929199384
0.3395624359674902 0.9720428046871311 0.0370655497527447
0.4581607871923473 0.9575970235668780 0.2289255757100455
0.0199068726848760 0.8054739703725069 0.4374909492614920
0.4610059388566214 0.8063336710105242 0.1278576474026120
0.3023219743942091 0.8929694017333090 0.9991624018325536
0.1697278390631351 0.7212927235657219 0.3814674011136671
0.0635962174108169 0.9433266899367063 0.2470965094836556
0.1558865606108104 0.8153499193981744 0.2862785066267539
0.1726807268565667 0.9320390823920144 0.1019064706927106
0.5089088008256510 0.7239718560896542 -0.0002597342854990
0.2700404487194273 0.7180258142567940 0.0422446421232346
0.8537586426651921 0.2043422051062267 0.9969458488172889
0.8279914379088071 0.1312963358935142 0.1640479889127605
0.5593750347190796 0.9301212552842866 0.4069090500752639
0.0866900082169760 0.7720501963286996 0.1103651860908143
0.9402251649940286 0.9920301965649156 0.1640432348596834
